Iteration,Run,CDF_Threshold,k,sigma,Rounding,Real_Threshold,SigLevel,Studentized_Residuals,SR_Time,Langousis_Min1,Langousis_Min2,Langousis_Min3,Langousis_Time,Anderson_Darling,AD_Time,Cramer_Von_Mises,CVM_Time
1,1,0.99,-0.15,0.5,1,2.32634787404084,0.01,1.5,0.7544568,1.69381363034748,NaN,NaN,0.2719428,3.5,2.0294165,3.5,0.2861695
2,1,0.99,-0.15,0.5,1,2.32634787404084,0.05,1.5,0.2783027,1.69381363034748,NaN,NaN,0.0308155,3.5,0.2670617,3.5,0.2833019
3,1,0.99,-0.15,0.5,2,2.32634787404084,0.01,1,0.2776042,1.73682813511533,NaN,NaN,0.0964405,2.08,2.0617629,2.08,1.8023905
4,1,0.99,-0.15,0.5,2,2.32634787404084,0.05,1.95,0.3649601,1.73682813511533,NaN,NaN,0.0908622,2.08,1.8987949,2.08,1.7968441
5,1,0.99,-0.15,0.5,3,2.32634787404084,0.01,0.944,1.2975379,1.43592557208079,1.86557278734019,NaN,22.3758018,1.955,16.3699445,1.955,16.7177292
6,1,0.99,-0.15,0.5,3,2.32634787404084,0.05,1.256,1.8335915,1.43592557208079,1.86557278734019,NaN,21.9030782,1.955,16.3184952,1.955,16.7352322
7,2,0.99,-0.15,0.5,1,2.32634787404084,0.01,1.1,0.0899173,1.21400391928133,NaN,NaN,0.0079698,3.5,0.2599195,3.5,0.2996937
8,2,0.99,-0.15,0.5,1,2.32634787404084,0.05,1.1,0.0822905,1.21400391928133,NaN,NaN,0.0057908,3.5,0.2516766,3.5,0.2528856
9,2,0.99,-0.15,0.5,2,2.32634787404084,0.01,1.12,0.3176469,1.21736511237964,1.84899751080999,2.38570012085198,0.0760818,3.49,2.1699932,3.49,2.1574358
10,2,0.99,-0.15,0.5,2,2.32634787404084,0.05,1.12,0.2393872,1.21736511237964,1.84899751080999,2.38570012085198,0.0779528,3.49,2.1280387,3.49,2.1517053
11,2,0.99,-0.15,0.5,3,2.32634787404084,0.01,1.183,1.9202857,1.22011810839549,1.76607343398529,2.36795026318228,21.7140208,3.491,17.2826532,3.491,17.9117525
12,2,0.99,-0.15,0.5,3,2.32634787404084,0.05,1.183,1.9149577,1.22011810839549,1.76607343398529,2.36795026318228,21.4717958,3.491,17.6096124,3.491,17.4776611
13,3,0.99,-0.15,0.5,1,2.32634787404084,0.01,0.9,0.0836391,1.4537334070924,NaN,NaN,0.0072887,3.5,0.2491917,3.5,0.2529269
14,3,0.99,-0.15,0.5,1,2.32634787404084,0.05,1.3,0.2247248,1.4537334070924,NaN,NaN,0.005763,3.5,0.3180218,3.5,0.2900277
15,3,0.99,-0.15,0.5,2,2.32634787404084,0.01,1.49,0.4064871,1.43352308290542,2.61714017061856,NaN,0.081254,3.5,2.3887634,3.5,2.3312895
16,3,0.99,-0.15,0.5,2,2.32634787404084,0.05,1.49,0.3577307,1.43352308290542,2.61714017061856,NaN,0.0815325,3.5,2.2060396,3.5,2.1954476
17,3,0.99,-0.15,0.5,3,2.32634787404084,0.01,1.35,2.0655531,1.58451793874827,2.60004171746072,3.19188597469706,22.6219739,3.505,17.3353998,3.505,18.2179779
18,3,0.99,-0.15,0.5,3,2.32634787404084,0.05,1.35,1.9932066,1.58451793874827,2.60004171746072,3.19188597469706,22.4788061,3.505,17.5595315,3.505,17.2870093
19,4,0.99,-0.15,0.5,1,2.32634787404084,0.01,1,0.0878138,1.77767135273595,2.18930873138707,NaN,0.0066244,3.6,0.252331,3.6,0.2543112
20,4,0.99,-0.15,0.5,1,2.32634787404084,0.05,1.7,0.2105374,1.77767135273595,2.18930873138707,NaN,0.0054851,3.6,0.2660874,3.6,0.3272584
21,4,0.99,-0.15,0.5,2,2.32634787404084,0.01,1.03,0.243796,1.71534176233566,2.46119375024832,NaN,0.0971223,3.6,2.3894736,3.6,2.3879869
22,4,0.99,-0.15,0.5,2,2.32634787404084,0.05,1.7,0.3333145,1.71534176233566,2.46119375024832,NaN,0.0774217,3.6,2.2508706,3.6,2.2122123
23,4,0.99,-0.15,0.5,3,2.32634787404084,0.01,1.676,1.8327492,1.69407184549747,2.13110454980793,2.4173974135952,21.5236151,3.599,17.8555614,3.599,18.3194215
24,4,0.99,-0.15,0.5,3,2.32634787404084,0.05,1.676,1.9012432,1.69407184549747,2.13110454980793,2.4173974135952,21.5274844,3.599,17.9983322,3.599,17.75558
25,5,0.99,-0.15,0.5,1,2.32634787404084,0.01,1.4,0.210218,1.52836472182628,2.27694459260802,NaN,0.0062281,3.5,0.250971,3.5,0.2528631
26,5,0.99,-0.15,0.5,1,2.32634787404084,0.05,1.4,0.2121212,1.52836472182628,2.27694459260802,NaN,0.0077322,3.5,0.2480581,3.5,0.2468596
27,5,0.99,-0.15,0.5,2,2.32634787404084,0.01,1.53,0.3673305,1.51603085527632,2.14575413499102,NaN,0.0715156,1.68,1.7884474,1.68,1.7362722
28,5,0.99,-0.15,0.5,2,2.32634787404084,0.05,1.53,0.3625998,1.51603085527632,2.14575413499102,NaN,0.1014019,1.68,1.67089,1.68,1.6318819
29,5,0.99,-0.15,0.5,3,2.32634787404084,0.01,1.459,1.8671356,1.64935959915184,2.12550415544449,2.79996601013941,21.7494829,1.654,15.8034487,1.654,15.5306413
30,5,0.99,-0.15,0.5,3,2.32634787404084,0.05,1.459,1.8401901,1.64935959915184,2.12550415544449,2.79996601013941,21.7846971,1.654,15.9712391,1.654,15.6012993
31,6,0.99,-0.15,0.5,1,2.32634787404084,0.01,1,0.089071,1.42140509730036,NaN,NaN,0.0059133,3.5,0.2549677,3.5,0.251071
32,6,0.99,-0.15,0.5,1,2.32634787404084,0.05,1.5,0.2997815,1.42140509730036,NaN,NaN,0.0063012,3.5,0.2498829,3.5,0.256446
33,6,0.99,-0.15,0.5,2,2.32634787404084,0.01,1.55,0.3482056,1.40063590019659,2.77533336736538,NaN,0.0777536,3.5,2.2466917,3.5,2.257234
34,6,0.99,-0.15,0.5,2,2.32634787404084,0.05,1.55,0.34146,1.40063590019659,2.77533336736538,NaN,0.0734881,3.5,2.246849,3.5,2.2315914
35,6,0.99,-0.15,0.5,3,2.32634787404084,0.01,1.56,1.8465349,1.43852306986918,2.78610922016962,NaN,22.3478058,3.502,18.4401219,3.502,17.9960364
36,6,0.99,-0.15,0.5,3,2.32634787404084,0.05,1.56,1.8669796,1.43852306986918,2.78610922016962,NaN,22.5771454,3.502,18.386677,3.502,18.0009975
37,7,0.99,-0.15,0.5,1,2.32634787404084,0.01,0.9,0.084784,1.41494471258271,2.25403912853746,NaN,0.0055727,3.5,0.2596475,3.5,0.2629409
38,7,0.99,-0.15,0.5,1,2.32634787404084,0.05,1.5,0.2862957,1.41494471258271,2.25403912853746,NaN,0.0051214,3.5,0.2594011,3.5,0.260372
39,7,0.99,-0.15,0.5,2,2.32634787404084,0.01,0.93,0.2405483,1.47205189836156,1.95671418397109,2.3082036206089,0.0795327,3.51,2.1816554,3.51,2.1751571
40,7,0.99,-0.15,0.5,2,2.32634787404084,0.05,1.55,0.4568739,1.47205189836156,1.95671418397109,2.3082036206089,0.0798121,3.51,2.1680996,3.51,2.1720438
41,7,0.99,-0.15,0.5,3,2.32634787404084,0.01,0.928,1.2678715,1.50747060838391,2.29863500318043,3.23256081724892,21.3215771,3.51,17.3140301,3.51,17.0397995
42,7,0.99,-0.15,0.5,3,2.32634787404084,0.05,0.928,1.2886515,1.50747060838391,2.29863500318043,3.23256081724892,21.3550131,3.51,17.1219426,3.51,17.3821977
43,8,0.99,-0.15,0.5,1,2.32634787404084,0.01,1,0.0965985,1.52495241511976,NaN,NaN,0.0048494,3.4,0.257234,3.4,0.2631063
44,8,0.99,-0.15,0.5,1,2.32634787404084,0.05,1.8,0.2993205,1.52495241511976,NaN,NaN,0.0048547,3.4,0.2544285,3.4,0.2574004
45,8,0.99,-0.15,0.5,2,2.32634787404084,0.01,1.03,0.2454939,1.59260161721305,2.18015289650472,NaN,0.0725476,3.44,2.2008932,3.44,2.2084249
46,8,0.99,-0.15,0.5,2,2.32634787404084,0.05,1.59,0.3493595,1.59260161721305,2.18015289650472,NaN,0.0747362,3.44,2.2133398,3.44,2.2564208
47,8,0.99,-0.15,0.5,3,2.32634787404084,0.01,1.592,1.9344366,1.60335183973358,2.1625685317701,NaN,22.5450538,1.932,16.6196649,1.932,16.5244009
48,8,0.99,-0.15,0.5,3,2.32634787404084,0.05,1.592,1.9425548,1.60335183973358,2.1625685317701,NaN,22.6794816,1.932,16.5483153,1.932,16.7462259
49,9,0.99,-0.15,0.5,1,2.32634787404084,0.01,1.1,0.0998695,2.17923137636146,NaN,NaN,0.0186475,3.4,0.2440618,3.4,0.2443763
50,9,0.99,-0.15,0.5,1,2.32634787404084,0.05,1.7,0.2631798,2.17923137636146,NaN,NaN,0.0057319,3.4,0.2442907,3.4,0.2455195
51,9,0.99,-0.15,0.5,2,2.32634787404084,0.01,1.14,0.2413531,2.17507692894566,NaN,NaN,0.078175,1.79,1.6561225,1.79,1.6736636
52,9,0.99,-0.15,0.5,2,2.32634787404084,0.05,1.8,0.3672794,2.17507692894566,NaN,NaN,0.0712192,1.79,1.6648704,1.79,1.6492426
53,9,0.99,-0.15,0.5,3,2.32634787404084,0.01,1.153,1.2958169,1.75316759411558,2.17751933518185,NaN,22.0445277,1.769,15.8090026,1.769,16.0890963
54,9,0.99,-0.15,0.5,3,2.32634787404084,0.05,1.153,1.3031908,1.75316759411558,2.17751933518185,NaN,21.9339736,1.769,15.8787848,1.769,15.9572495
55,10,0.99,-0.15,0.5,1,2.32634787404084,0.01,0.9,0.0877356,1.45699219855945,NaN,NaN,0.0053591,3.4,0.2575516,3.4,0.2557865
56,10,0.99,-0.15,0.5,1,2.32634787404084,0.05,1.7,0.2912844,1.45699219855945,NaN,NaN,0.0057014,3.4,0.2651526,3.4,0.2646889
57,10,0.99,-0.15,0.5,2,2.32634787404084,0.01,1.75,0.3965446,1.55649292302836,2.19585638452326,NaN,0.077402,3.41,2.8208339,3.41,2.5671975
58,10,0.99,-0.15,0.5,2,2.32634787404084,0.05,1.75,0.3970313,1.55649292302836,2.19585638452326,NaN,0.0769408,3.41,2.2079066,3.41,2.2097235
59,10,0.99,-0.15,0.5,3,2.32634787404084,0.01,1.754,1.8470361,1.67011521107485,2.18674897748288,NaN,22.2152363,3.408,17.6798728,3.408,17.8702374
60,10,0.99,-0.15,0.5,3,2.32634787404084,0.05,1.754,1.8484221,1.67011521107485,2.18674897748288,NaN,21.9537566,3.408,17.6701272,3.408,17.5918279
61,1,0.99,-0.15,1,1,2.32634787404084,0.01,2.3,0.3243887,1.16461136137342,2.68427470408661,3.18779319365379,0.0081699,1.8,0.163955,1.8,0.1683572
62,1,0.99,-0.15,1,1,2.32634787404084,0.05,2.3,0.3273078,1.16461136137342,2.68427470408661,3.18779319365379,0.0062923,1.8,0.1617584,1.8,0.1601203
63,1,0.99,-0.15,1,2,2.32634787404084,0.01,2.36,0.4827371,1.26832646499549,2.43307466808625,2.65913119355725,0.0896752,1.4,1.3499136,1.37,1.4360782
64,1,0.99,-0.15,1,2,2.32634787404084,0.05,2.36,0.5109098,1.26832646499549,2.43307466808625,2.65913119355725,0.09374,1.79,1.6038967,1.79,1.5927024
65,1,0.99,-0.15,1,3,2.32634787404084,0.01,2.37,2.1219752,1.36259378062808,2.40206308007576,2.6676038167475,22.5149302,1.4,13.2728954,1.37,13.1383259
66,1,0.99,-0.15,1,3,2.32634787404084,0.05,2.37,2.10228,1.36259378062808,2.40206308007576,2.6676038167475,22.464536,1.754,15.1658426,1.754,14.8217858
67,2,0.99,-0.15,1,1,2.32634787404084,0.01,2.3,0.3524842,1.28880860280901,2.50281477330078,3.23753887382605,0.00695,1.5,0.1470364,1.5,0.1535613
68,2,0.99,-0.15,1,1,2.32634787404084,0.05,2.3,0.3594658,1.28880860280901,2.50281477330078,3.23753887382605,0.0060056,1.6,0.1499962,1.5,0.1464114
69,2,0.99,-0.15,1,2,2.32634787404084,0.01,2.35,0.46769,1.35559671883681,2.40732624295648,3.32738050836043,0.0889881,1.44,1.3051836,1.44,1.3200716
70,2,0.99,-0.15,1,2,2.32634787404084,0.05,2.35,0.4686761,1.35559671883681,2.40732624295648,3.32738050836043,0.0818904,1.55,1.3748017,1.55,1.3651985
71,2,0.99,-0.15,1,3,2.32634787404084,0.01,2.358,2.3608383,1.45947283176158,2.39167456389259,3.32363073115929,20.7984375,1.438,13.4209744,1.438,13.3035602
72,2,0.99,-0.15,1,3,2.32634787404084,0.05,2.358,2.3596952,1.45947283176158,2.39167456389259,3.32363073115929,20.8992706,1.553,13.9175408,1.537,15.6367421
73,3,0.99,-0.15,1,1,2.32634787404084,0.01,2.3,0.4222148,1.2235938668494,2.42799699183072,NaN,0.0086456,1.5,0.1706208,1.5,0.1684277
74,3,0.99,-0.15,1,1,2.32634787404084,0.05,2.3,0.3411243,1.2235938668494,2.42799699183072,NaN,0.0070025,1.7,0.1880148,1.5,0.1702968
75,3,0.99,-0.15,1,2,2.32634787404084,0.01,2.33,0.5187749,1.29926101395854,2.39050683271126,3.35008799985585,0.0914628,1.5,1.5474808,1.5,1.5415534
76,3,0.99,-0.15,1,2,2.32634787404084,0.05,2.33,0.5338106,1.29926101395854,2.39050683271126,3.35008799985585,0.0836842,1.53,1.5410126,1.53,1.5059817
77,3,0.99,-0.15,1,3,2.32634787404084,0.01,2.327,2.3990375,1.42106598218959,2.38661642340516,3.33913896007464,21.7036565,1.506,13.413303,1.502,13.0458769
78,3,0.99,-0.15,1,3,2.32634787404084,0.05,2.327,2.2520742,1.42106598218959,2.38661642340516,3.33913896007464,21.8369671,1.529,13.101023,1.506,13.2122525
79,4,0.99,-0.15,1,1,2.32634787404084,0.01,2.3,0.3300713,1.40545450943778,2.50812235875523,NaN,0.0056425,1.6,0.1540397,1.5,0.1655005
80,4,0.99,-0.15,1,1,2.32634787404084,0.05,2.3,0.3036825,1.40545450943778,2.50812235875523,NaN,0.0056737,1.7,0.1562785,1.6,0.1509067
81,4,0.99,-0.15,1,2,2.32634787404084,0.01,2.34,0.4693996,1.50385408870147,2.43741847638888,NaN,0.0765305,1.51,1.3517696,1.51,1.3573702
82,4,0.99,-0.15,1,2,2.32634787404084,0.05,2.34,0.4630109,1.50385408870147,2.43741847638888,NaN,0.0776426,1.51,1.3569957,1.51,1.3460516
83,4,0.99,-0.15,1,3,2.32634787404084,0.01,2.366,2.4731766,1.602911202684,2.42518909815017,NaN,21.7619038,1.509,13.5043483,1.509,13.6939245
84,4,0.99,-0.15,1,3,2.32634787404084,0.05,2.366,2.5244806,1.602911202684,2.42518909815017,NaN,22.0871549,1.509,14.1005436,1.509,13.678354
85,5,0.99,-0.15,1,1,2.32634787404084,0.01,2.3,0.3197507,1.33330048396937,2.72637222665392,NaN,0.0063163,1.6,0.1515694,1.6,0.1528891
86,5,0.99,-0.15,1,1,2.32634787404084,0.05,2.3,0.3180666,1.33330048396937,2.72637222665392,NaN,0.005827,1.6,0.153514,1.6,0.1523393
87,5,0.99,-0.15,1,2,2.32634787404084,0.01,2.34,0.4733551,1.41321949042263,2.42417362001933,2.88148273301816,0.0835356,1.49,1.3787241,1.49,1.371689
88,5,0.99,-0.15,1,2,2.32634787404084,0.05,2.34,0.4771264,1.41321949042263,2.42417362001933,2.88148273301816,0.0853536,1.49,1.4248124,1.49,1.4731892
89,5,0.99,-0.15,1,3,2.32634787404084,0.01,2.33,2.5730823,1.50122668881589,2.40884825282991,2.84163435176922,21.7463622,1.49,13.9893913,1.49,13.5539304
90,5,0.99,-0.15,1,3,2.32634787404084,0.05,2.33,2.5786696,1.50122668881589,2.40884825282991,2.84163435176922,21.6054099,1.492,13.7904166,1.492,13.9672917
91,6,0.99,-0.15,1,1,2.32634787404084,0.01,2.3,0.3576829,1.29142144545525,2.58333738382391,NaN,0.0057454,1.6,0.1537872,1.6,0.1550792
92,6,0.99,-0.15,1,1,2.32634787404084,0.05,2.3,0.3557649,1.29142144545525,2.58333738382391,NaN,0.0060753,1.6,0.1540695,1.6,0.1521499
93,6,0.99,-0.15,1,2,2.32634787404084,0.01,2.32,0.4832087,1.40853744289448,2.55168825983127,3.51569329017808,0.0868572,1.57,1.4099305,1.26,1.2304939
94,6,0.99,-0.15,1,2,2.32634787404084,0.05,2.32,0.4788413,1.40853744289448,2.55168825983127,3.51569329017808,0.0869116,1.58,1.4035932,1.58,1.4162104
95,6,0.99,-0.15,1,3,2.32634787404084,0.01,2.324,2.6211913,1.49834367991598,2.36980531442436,2.57788846428891,22.1546309,1.46,13.4553708,1.258,12.2693258
96,6,0.99,-0.15,1,3,2.32634787404084,0.05,2.324,2.8160474,1.49834367991598,2.36980531442436,2.57788846428891,22.1344812,1.581,13.8035221,1.581,14.1242565
97,7,0.99,-0.15,1,1,2.32634787404084,0.01,2.3,0.3831854,1.26462156619729,2.46654542366807,NaN,0.0065472,1.6,0.1650259,1.6,0.1583455
98,7,0.99,-0.15,1,1,2.32634787404084,0.05,2.3,0.3784991,1.26462156619729,2.46654542366807,NaN,0.0065213,1.6,0.1645491,1.6,0.1668613
99,7,0.99,-0.15,1,2,2.32634787404084,0.01,2.29,0.480736,1.38293658676672,2.38787006334623,NaN,0.0923596,1.56,1.4320156,1.56,1.429074
100,7,0.99,-0.15,1,2,2.32634787404084,0.05,2.29,0.5003336,1.38293658676672,2.38787006334623,NaN,0.0896755,1.62,1.4601756,1.62,1.4721197
101,7,0.99,-0.15,1,3,2.32634787404084,0.01,1.497,1.9053063,1.48350040835352,2.36953412237838,3.29382444425995,23.1901212,1.558,13.964,1.558,14.2252583
102,7,0.99,-0.15,1,3,2.32634787404084,0.05,1.497,1.9908605,1.48350040835352,2.36953412237838,3.29382444425995,23.1477711,1.618,14.3988515,1.603,14.111595
103,8,0.99,-0.15,1,1,2.32634787404084,0.01,2.4,0.3538911,1.27606187860018,2.45054177469808,2.72663252033793,0.0078812,1.7,0.1610716,1.4,0.1523895
104,8,0.99,-0.15,1,1,2.32634787404084,0.05,2.4,0.3677801,1.27606187860018,2.45054177469808,2.72663252033793,0.007926,1.7,0.1618408,1.7,0.1760041
105,8,0.99,-0.15,1,2,2.32634787404084,0.01,2.32,0.4879721,1.38187284983637,2.39741656548714,2.90316647018768,0.0957935,1.37,1.3517063,1.37,1.3095993
106,8,0.99,-0.15,1,2,2.32634787404084,0.05,2.32,0.4673123,1.38187284983637,2.39741656548714,2.90316647018768,0.090879,1.37,1.2962273,1.37,1.2970614
107,8,0.99,-0.15,1,3,2.32634787404084,0.01,2.321,2.2826895,1.50487857191535,2.39700624070558,2.90441002979722,22.8320483,1.373,12.9295241,1.371,12.719174
108,8,0.99,-0.15,1,3,2.32634787404084,0.05,2.321,2.3063717,1.50487857191535,2.39700624070558,2.90441002979722,22.9345785,1.373,12.9406336,1.373,13.1147529
109,9,0.99,-0.15,1,1,2.32634787404084,0.01,2.3,0.4239936,1.40209256343677,2.35633941966681,NaN,0.0063287,1.8,0.1629797,1.4,0.1436529
110,9,0.99,-0.15,1,1,2.32634787404084,0.05,2.3,0.4244222,1.40209256343677,2.35633941966681,NaN,0.0072098,1.9,0.1668033,1.9,0.1688959
111,9,0.99,-0.15,1,2,2.32634787404084,0.01,2.33,0.558898,1.43582500312931,2.33199657118589,NaN,0.0867253,1.38,1.308989,1.38,1.3077893
112,9,0.99,-0.15,1,2,2.32634787404084,0.05,2.33,0.5688766,1.43582500312931,2.33199657118589,NaN,0.0879825,1.45,1.3533787,1.45,1.3420575
113,9,0.99,-0.15,1,3,2.32634787404084,0.01,2.329,2.3694132,1.49425407316879,2.3135308643731,3.78952731389795,22.5173182,1.377,13.1508133,1.37,13.3701075
114,9,0.99,-0.15,1,3,2.32634787404084,0.05,2.329,2.383762,1.49425407316879,2.3135308643731,3.78952731389795,22.5258595,1.45,13.4271159,1.427,13.4286524
115,10,0.99,-0.15,1,1,2.32634787404084,0.01,2.3,0.3500879,1.14778812855877,3.18479233171628,NaN,0.0061721,1.8,0.1591896,1.8,0.1649446
116,10,0.99,-0.15,1,1,2.32634787404084,0.05,2.3,0.3438241,1.14778812855877,3.18479233171628,NaN,0.0055956,2,0.177546,2,0.1705368
117,10,0.99,-0.15,1,2,2.32634787404084,0.01,2.33,0.4901563,1.26302354125208,2.39019309111653,3.10577412707671,0.0789771,1.81,1.5347905,1.3,1.2523212
118,10,0.99,-0.15,1,2,2.32634787404084,0.05,2.33,0.4776193,1.26302354125208,2.39019309111653,3.10577412707671,0.0817525,1.86,1.6449615,1.86,1.7665561
119,10,0.99,-0.15,1,3,2.32634787404084,0.01,2.327,2.6076094,1.35389630740206,2.36288321908164,3.10537401811467,21.0523591,1.809,14.6181747,1.3,12.6467014
120,10,0.99,-0.15,1,3,2.32634787404084,0.05,2.327,2.506408,1.35389630740206,2.36288321908164,3.10537401811467,21.3437209,1.86,14.7431695,1.86,14.7313983
121,1,0.99,-0.15,2,1,2.32634787404084,0.01,2.3,0.4697715,1.08753865917128,3.13544675348844,3.84055254503241,0.0075629,1.4,0.1314489,1.3,0.1234685
122,1,0.99,-0.15,2,1,2.32634787404084,0.05,2.3,0.4571657,1.08753865917128,3.13544675348844,3.84055254503241,0.0078648,1.4,0.1424297,1.4,0.1315309
123,1,0.99,-0.15,2,2,2.32634787404084,0.01,2.31,0.3437603,1.1980123399727,3.17343665502014,3.83477311252911,0.0996532,1.28,1.1904319,1.28,1.17768
124,1,0.99,-0.15,2,2,2.32634787404084,0.05,2.31,0.3244029,1.1980123399727,3.17343665502014,3.83477311252911,0.0982974,1.38,1.2719329,1.38,1.3459128
125,1,0.99,-0.15,2,3,2.32634787404084,0.01,2.318,2.1988489,1.33147727275382,2.35595307763787,3.1696352648269,23.0122742,1.281,11.733225,1.281,11.7672376
126,1,0.99,-0.15,2,3,2.32634787404084,0.05,2.318,2.1388568,1.33147727275382,2.35595307763787,3.1696352648269,22.7765687,1.379,12.6520199,1.281,12.0009864
127,2,0.99,-0.15,2,1,2.32634787404084,0.01,2.3,0.2349097,0.79294341131955,2.58885391197298,3.84952353369345,0.008992,6.5,0.3589156,6.5,0.3523723
128,2,0.99,-0.15,2,1,2.32634787404084,0.05,4,0.4407261,0.79294341131955,2.58885391197298,3.84952353369345,0.0085004,6.5,0.3707339,6.5,0.371765
129,2,0.99,-0.15,2,2,2.32634787404084,0.01,2.37,0.2544538,0.930935250420083,2.67275796720846,3.87815221211168,0.0971933,2,1.6180765,2,1.6073863
130,2,0.99,-0.15,2,2,2.32634787404084,0.05,2.37,0.2399371,0.930935250420083,2.67275796720846,3.87815221211168,0.0955463,6.45,2.244355,6.45,2.231023
131,2,0.99,-0.15,2,3,2.32634787404084,0.01,2.366,2.3505944,1.07729408226074,2.70186023807089,3.84993085547377,21.8435532,2.002,15.0979347,2.002,15.5086812
132,2,0.99,-0.15,2,3,2.32634787404084,0.05,2.366,2.3564499,1.07729408226074,2.70186023807089,3.84993085547377,21.8321482,6.451,16.5950572,6.451,16.7390588
133,3,0.99,-0.15,2,1,2.32634787404084,0.01,2.3,0.3352919,0.877216867200294,2.47127999667579,3.0630701129919,0.0081174,2,0.1757294,2,0.1708219
134,3,0.99,-0.15,2,1,2.32634787404084,0.05,2.3,0.2872391,0.877216867200294,2.47127999667579,3.0630701129919,0.0082605,2.1,0.1698442,2.1,0.1673234
135,3,0.99,-0.15,2,2,2.32634787404084,0.01,2.32,0.3472728,1.01168509186523,2.40136021690042,3.06354754021691,0.0995394,1.63,1.3905363,1.63,1.3887176
136,3,0.99,-0.15,2,2,2.32634787404084,0.05,2.32,0.3491314,1.01168509186523,2.40136021690042,3.06354754021691,0.0987419,2.01,1.6230231,2.01,1.6152176
137,3,0.99,-0.15,2,3,2.32634787404084,0.01,2.325,2.4213498,1.15941087642787,2.38423843203607,3.06908734341194,22.1866762,1.625,13.8606278,1.545,13.1169809
138,3,0.99,-0.15,2,3,2.32634787404084,0.05,2.325,2.5433449,1.15941087642787,2.38423843203607,3.06908734341194,22.3318895,2.012,15.0058384,2.012,15.2884538
139,4,0.99,-0.15,2,1,2.32634787404084,0.01,2.3,0.2744543,0.941958212920428,2.47582941456656,3.90277151891088,0.0080078,1.7,0.1481777,1.7,0.1515131
140,4,0.99,-0.15,2,1,2.32634787404084,0.05,2.3,0.2639326,0.941958212920428,2.47582941456656,3.90277151891088,0.0079958,1.8,0.1542651,1.7,0.1488175
141,4,0.99,-0.15,2,2,2.32634787404084,0.01,2.32,0.3452539,1.04958982445728,2.39467071225267,4.0130815677554,0.099229,1.72,1.4549785,1.72,1.4356034
142,4,0.99,-0.15,2,2,2.32634787404084,0.05,2.32,0.3579146,1.04958982445728,2.39467071225267,4.0130815677554,0.0955926,1.72,1.4345565,1.72,1.4333806
143,4,0.99,-0.15,2,3,2.32634787404084,0.01,2.326,2.3369522,1.22774571538059,2.38252487557897,4.03558499795381,23.2245792,1.716,13.8919895,1.706,14.067458
144,4,0.99,-0.15,2,3,2.32634787404084,0.05,2.326,2.3945957,1.22774571538059,2.38252487557897,4.03558499795381,23.291827,1.722,13.8770876,1.722,13.8340728
145,5,0.99,-0.15,2,1,2.32634787404084,0.01,2.3,0.4244347,1.07965882485419,3.28992220846378,4.08399389438639,0.0081332,1.5,0.1448288,1.5,0.1417275
146,5,0.99,-0.15,2,1,2.32634787404084,0.05,2.3,0.4068455,1.07965882485419,3.28992220846378,4.08399389438639,0.0082527,1.6,0.1451439,1.6,0.142893
147,5,0.99,-0.15,2,2,2.32634787404084,0.01,2.31,0.3499992,1.18282666089658,2.41358180029208,3.38321206082012,0.0875621,1.35,1.2374787,1.35,1.2324978
148,5,0.99,-0.15,2,2,2.32634787404084,0.05,2.31,0.3474469,1.18282666089658,2.41358180029208,3.38321206082012,0.0870263,1.48,1.3256607,1.48,1.3217773
149,5,0.99,-0.15,2,3,2.32634787404084,0.01,2.319,2.414519,1.3093950365842,2.38528927430711,3.42153437038966,21.7752259,1.353,12.3308078,1.353,12.1998947
150,5,0.99,-0.15,2,3,2.32634787404084,0.05,2.319,2.3070787,1.3093950365842,2.38528927430711,3.42153437038966,21.6064247,1.482,13.0457611,1.364,12.6760325
151,6,0.99,-0.15,2,1,2.32634787404084,0.01,2.3,0.2490845,0.87466103327507,2.49025015191039,5.02770294680276,0.0081231,1.5,0.1386497,1.5,0.1366658
152,6,0.99,-0.15,2,1,2.32634787404084,0.05,2.3,0.2448933,0.87466103327507,2.49025015191039,5.02770294680276,0.0078672,1.5,0.1368971,1.5,0.1387242
153,6,0.99,-0.15,2,2,2.32634787404084,0.01,2.32,0.3545543,1.05290834083197,2.42926848028002,3.57597301470032,0.0966922,1.48,1.3281461,1.44,1.2917215
154,6,0.99,-0.15,2,2,2.32634787404084,0.05,2.32,0.357072,1.05290834083197,2.42926848028002,3.57597301470032,0.0920067,1.52,1.3458371,1.48,1.3060586
155,6,0.99,-0.15,2,3,2.32634787404084,0.01,2.325,2.277988,1.20817878609905,2.41032276972637,3.51917398431273,21.993675,1.475,13.0563852,1.442,12.9494793
156,6,0.99,-0.15,2,3,2.32634787404084,0.05,2.325,2.3374016,1.20817878609905,2.41032276972637,3.51917398431273,21.9385087,1.492,12.9188653,1.475,13.0868497
157,7,0.99,-0.15,2,1,2.32634787404084,0.01,2.3,0.2395739,0.685141534633081,3.27970547656447,4.85204309195912,0.0083969,1.9,0.1583367,1.9,0.1546539
158,7,0.99,-0.15,2,1,2.32634787404084,0.05,5,0.4409984,0.685141534633081,3.27970547656447,4.85204309195912,0.0084702,1.9,0.1634082,1.9,0.1636682
159,7,0.99,-0.15,2,2,2.32634787404084,0.01,2.32,0.2627318,0.858746769847475,2.92138259181117,4.85801330841652,0.0917355,1.88,1.5297663,1.73,1.4918115
160,7,0.99,-0.15,2,2,2.32634787404084,0.05,2.32,0.2569952,0.858746769847475,2.92138259181117,4.85801330841652,0.0990032,1.88,1.5448597,1.88,1.5376906
161,7,0.99,-0.15,2,3,2.32634787404084,0.01,2.325,2.134233,0.993053786233065,2.93878137288647,4.85951688282532,22.0247641,1.882,14.4865853,1.723,13.9932876
162,7,0.99,-0.15,2,3,2.32634787404084,0.05,2.325,2.2577599,0.993053786233065,2.93878137288647,4.85951688282532,21.9590272,1.882,14.493965,1.867,14.3261189
163,8,0.99,-0.15,2,1,2.32634787404084,0.01,2.3,0.2831249,0.924597454928528,2.5694426328393,4.00904024380456,0.0081233,1.7,0.1499656,1.7,0.1485905
164,8,0.99,-0.15,2,1,2.32634787404084,0.05,2.3,0.2748011,0.924597454928528,2.5694426328393,4.00904024380456,0.0086158,1.7,0.1510375,1.7,0.1471038
165,8,0.99,-0.15,2,2,2.32634787404084,0.01,2.33,0.3617994,1.06801525004892,2.64475657234368,4.18755219612398,0.0938365,1.68,1.4144666,1.68,1.4182528
166,8,0.99,-0.15,2,2,2.32634787404084,0.05,2.33,0.3675193,1.06801525004892,2.64475657234368,4.18755219612398,0.0976383,1.68,1.4189745,1.68,1.4229328
167,8,0.99,-0.15,2,3,2.32634787404084,0.01,2.328,2.7301405,1.23399411459714,2.44086419113204,2.67609995449914,23.107843,1.677,13.9343123,1.677,13.8258723
168,8,0.99,-0.15,2,3,2.32634787404084,0.05,2.328,2.7537491,1.23399411459714,2.44086419113204,2.67609995449914,22.819397,1.677,14.1976086,1.677,13.8565534
169,9,0.99,-0.15,2,1,2.32634787404084,0.01,2.3,0.2651646,1.00205568509486,2.46112782670631,3.3647840891624,0.0080494,1.5,0.1514553,1.5,0.1383896
170,9,0.99,-0.15,2,1,2.32634787404084,0.05,2.3,0.2668906,1.00205568509486,2.46112782670631,3.3647840891624,0.0077354,1.6,0.1454831,1.5,0.1387678
171,9,0.99,-0.15,2,2,2.32634787404084,0.01,2.31,0.3591186,1.11508778967488,2.39915515685133,3.34257605728863,0.0979134,1.5,1.3027148,1.45,1.2797618
172,9,0.99,-0.15,2,2,2.32634787404084,0.05,2.31,0.3518586,1.11508778967488,2.39915515685133,3.34257605728863,0.0993684,1.54,1.3249244,1.52,1.3202335
173,9,0.99,-0.15,2,3,2.32634787404084,0.01,2.312,2.6353958,1.22841163308122,2.39020695590358,3.34280511974189,22.1799724,1.448,12.523215,1.448,12.9503229
174,9,0.99,-0.15,2,3,2.32634787404084,0.05,2.312,2.6413272,1.22841163308122,2.39020695590358,3.34280511974189,22.6858917,1.534,13.5042774,1.522,13.0720424
175,10,0.99,-0.15,2,1,2.32634787404084,0.01,2.3,0.2333417,0.893280425210455,2.47093287632259,3.95693574920147,0.008921,1.4,0.1328439,1.3,0.1279999
176,10,0.99,-0.15,2,1,2.32634787404084,0.05,2.3,0.2247939,0.893280425210455,2.47093287632259,3.95693574920147,0.0088496,7.2,0.3731945,1.4,0.1307056
177,10,0.99,-0.15,2,2,2.32634787404084,0.01,2.33,0.3847491,1.05612890938142,2.38596794960785,3.87756671608502,0.1079756,1.28,1.1851865,0.81,0.8490358
178,10,0.99,-0.15,2,2,2.32634787404084,0.05,2.33,0.3976872,1.05612890938142,2.38596794960785,3.87756671608502,0.1083878,1.44,1.4205811,1.28,1.2577765
179,10,0.99,-0.15,2,3,2.32634787404084,0.01,2.321,2.6244861,1.20495074585462,2.37347119988864,3.88409854948803,24.2053158,1.281,11.7421961,0.827,8.8374281
180,10,0.99,-0.15,2,3,2.32634787404084,0.05,2.321,2.5576367,1.20495074585462,2.37347119988864,3.88409854948803,24.3903889,1.36,12.1295793,1.281,11.7554979
181,1,0.99,-0.1,0.5,1,2.32634787404084,0.01,1.2,0.1016695,1.62857903847919,NaN,NaN,0.0053064,3.5,0.2528004,3.5,0.257637
182,1,0.99,-0.1,0.5,1,2.32634787404084,0.05,1.2,0.0945014,1.62857903847919,NaN,NaN,0.0048774,3.5,0.2549142,3.5,0.2571421
183,1,0.99,-0.1,0.5,2,2.32634787404084,0.01,1.22,0.2561985,1.70865964615174,NaN,NaN,0.0738705,3.45,2.2043043,3.45,2.2156091
184,1,0.99,-0.1,0.5,2,2.32634787404084,0.05,1.22,0.2396624,1.70865964615174,NaN,NaN,0.0720242,3.45,2.2173245,3.45,2.1953733
185,1,0.99,-0.1,0.5,3,2.32634787404084,0.01,1.224,1.9716424,1.68843935235052,NaN,NaN,22.9831194,3.452,18.0375893,3.452,18.0597924
186,1,0.99,-0.1,0.5,3,2.32634787404084,0.05,1.224,1.921563,1.68843935235052,NaN,NaN,25.4834481,3.452,18.3120485,3.452,17.9464807
187,2,0.99,-0.1,0.5,1,2.32634787404084,0.01,1,0.1075506,1.66309210706977,NaN,NaN,0.005567,3.4,0.2485882,3.4,0.2534199
188,2,0.99,-0.1,0.5,1,2.32634787404084,0.05,1,0.0922029,1.66309210706977,NaN,NaN,0.0056172,3.4,0.2744742,3.4,0.2511708
189,2,0.99,-0.1,0.5,2,2.32634787404084,0.01,0.96,0.2511626,1.62180353213767,2.50277388578659,NaN,0.08973,1.92,1.7419593,1.92,1.7394209
190,2,0.99,-0.1,0.5,2,2.32634787404084,0.05,2.38,0.5373642,1.62180353213767,2.50277388578659,NaN,0.0823693,1.92,1.7371019,1.92,1.8660624
191,2,0.99,-0.1,0.5,3,2.32634787404084,0.01,1.31,2.1196833,1.28114921933099,1.64468670727803,1.98520897981957,25.5384321,1.881,16.2514018,1.881,16.294353
192,2,0.99,-0.1,0.5,3,2.32634787404084,0.05,1.31,2.0029832,1.28114921933099,1.64468670727803,1.98520897981957,25.6157606,1.881,16.3335051,1.881,16.28587
193,3,0.99,-0.1,0.5,1,2.32634787404084,0.01,1.6,0.1981163,1.66081293004741,2.11831804980639,NaN,0.0051863,3.3,0.2483997,3.3,0.2483361
194,3,0.99,-0.1,0.5,1,2.32634787404084,0.05,1.6,0.1861765,1.66081293004741,2.11831804980639,NaN,0.0056802,3.3,0.2478012,3.3,0.2518432
195,3,0.99,-0.1,0.5,2,2.32634787404084,0.01,1.64,0.4690068,1.68073013630533,NaN,NaN,0.0845097,3.33,2.1856816,3.33,2.1900955
196,3,0.99,-0.1,0.5,2,2.32634787404084,0.05,1.64,0.4673838,1.68073013630533,NaN,NaN,0.0794985,3.33,2.1855156,3.33,2.3136243
197,3,0.99,-0.1,0.5,3,2.32634787404084,0.01,1.481,2.0423988,1.69290831916858,3.00764821079063,NaN,24.5704524,3.326,17.9201823,3.326,18.0360368
198,3,0.99,-0.1,0.5,3,2.32634787404084,0.05,1.481,2.1177723,1.69290831916858,3.00764821079063,NaN,24.8275289,3.326,17.8385387,3.326,17.9647683
199,4,0.99,-0.1,0.5,1,2.32634787404084,0.01,1.5,0.1996124,1.69097535833981,NaN,NaN,0.0051872,3.4,0.2594034,3.4,0.24789
200,4,0.99,-0.1,0.5,1,2.32634787404084,0.05,1.5,0.1967075,1.69097535833981,NaN,NaN,0.0052563,3.4,0.245112,3.4,0.2521851
201,4,0.99,-0.1,0.5,2,2.32634787404084,0.01,1.6,0.3949517,1.63373391659397,2.41522062768355,NaN,0.0827095,1.71,1.6166389,1.71,1.731493
202,4,0.99,-0.1,0.5,2,2.32634787404084,0.05,1.6,0.4093797,1.63373391659397,2.41522062768355,NaN,0.084223,1.71,1.7746995,1.71,1.6544816
203,4,0.99,-0.1,0.5,3,2.32634787404084,0.01,1.624,1.8486823,1.62049085477814,2.38048964549636,NaN,24.0377534,1.611,15.5975949,1.611,15.2511541
204,4,0.99,-0.1,0.5,3,2.32634787404084,0.05,1.624,1.8438169,1.62049085477814,2.38048964549636,NaN,23.6350531,1.611,15.3762091,1.611,15.2301061
205,5,0.99,-0.1,0.5,1,2.32634787404084,0.01,1.4,0.2843448,2.00466535399823,NaN,NaN,0.004758,3.5,0.2406448,3.5,0.2492467
206,5,0.99,-0.1,0.5,1,2.32634787404084,0.05,1.4,0.2855327,2.00466535399823,NaN,NaN,0.00458,3.5,0.2435,3.5,0.2416696
207,5,0.99,-0.1,0.5,2,2.32634787404084,0.01,1.37,0.4330823,1.93401570473308,2.69710976763251,NaN,0.0844753,3.49,2.1531977,3.49,2.1709803
208,5,0.99,-0.1,0.5,2,2.32634787404084,0.05,1.37,0.4322905,1.93401570473308,2.69710976763251,NaN,0.0800855,3.49,2.1674417,3.49,2.1450601
209,5,0.99,-0.1,0.5,3,2.32634787404084,0.01,1.044,1.3342792,1.46160594900175,1.93295875650574,2.18885448533916,26.0206556,3.493,17.1015444,3.493,17.2276867
210,5,0.99,-0.1,0.5,3,2.32634787404084,0.05,1.376,1.5810415,1.46160594900175,1.93295875650574,2.18885448533916,25.8293569,3.493,17.5387648,3.493,17.2049834
211,6,0.99,-0.1,0.5,1,2.32634787404084,0.01,0.9,0.1041177,1.41125620016243,NaN,NaN,0.0048177,3.5,0.2492831,3.5,0.253528
212,6,0.99,-0.1,0.5,1,2.32634787404084,0.05,1.4,0.2968455,1.41125620016243,NaN,NaN,0.0046923,3.5,0.2588992,3.5,0.2557068
213,6,0.99,-0.1,0.5,2,2.32634787404084,0.01,0.95,0.2419209,1.4087414274886,2.15623504661471,NaN,0.0801438,3.53,2.1515509,3.53,2.184775
214,6,0.99,-0.1,0.5,2,2.32634787404084,0.05,1.6,0.394511,1.4087414274886,2.15623504661471,NaN,0.1096075,3.53,2.1862388,3.53,2.2265687
215,6,0.99,-0.1,0.5,3,2.32634787404084,0.01,1.44,1.9683957,1.41690375417967,2.00374462996519,2.1659174212595,23.9902829,3.531,17.3967771,3.531,17.3477894
216,6,0.99,-0.1,0.5,3,2.32634787404084,0.05,1.44,1.8878571,1.41690375417967,2.00374462996519,2.1659174212595,24.1033822,3.531,17.6441793,3.531,19.2714788
217,7,0.99,-0.1,0.5,1,2.32634787404084,0.01,1.2,0.1261033,1.57053009082102,NaN,NaN,0.0105996,3.6,0.3430525,3.6,0.3378444
218,7,0.99,-0.1,0.5,1,2.32634787404084,0.05,1.6,0.2757316,1.57053009082102,NaN,NaN,0.0060792,3.6,0.3097623,3.6,0.3062107
219,7,0.99,-0.1,0.5,2,2.32634787404084,0.01,1.63,0.4680818,1.6169039159161,2.32206365957439,NaN,0.094626,1.89,2.0422565,1.89,2.0539039
220,7,0.99,-0.1,0.5,2,2.32634787404084,0.05,1.63,0.4369404,1.6169039159161,2.32206365957439,NaN,0.1036602,1.89,2.1598503,1.89,2.2061488
221,7,0.99,-0.1,0.5,3,2.32634787404084,0.01,1.602,2.2403362,1.62377405095872,1.97933360765526,2.30828429145874,27.3019696,1.766,18.2426861,1.634,16.4297893
222,7,0.99,-0.1,0.5,3,2.32634787404084,0.05,1.602,1.9578028,1.62377405095872,1.97933360765526,2.30828429145874,25.2919697,1.766,15.8134778,1.766,15.9445252
223,8,0.99,-0.1,0.5,1,2.32634787404084,0.01,0.9,0.1187257,1.35398869671403,2.47942144620765,NaN,0.0067304,3.6,0.2741344,3.6,0.2512364
224,8,0.99,-0.1,0.5,1,2.32634787404084,0.05,1.5,0.2135555,1.35398869671403,2.47942144620765,NaN,0.0061641,3.6,0.2600362,3.6,0.2544348
225,8,0.99,-0.1,0.5,2,2.32634787404084,0.01,1.48,0.3724719,1.37420372527487,2.48912592870766,3.24214888568728,0.1161178,1.91,1.6770023,1.91,1.7484957
226,8,0.99,-0.1,0.5,2,2.32634787404084,0.05,1.48,0.3872679,1.37420372527487,2.48912592870766,3.24214888568728,0.1172816,1.91,1.8068604,1.91,1.6852627
227,8,0.99,-0.1,0.5,3,2.32634787404084,0.01,1.348,1.9806362,1.39261027694997,2.27981075962974,2.48708888922575,25.6849731,1.886,15.6236496,1.886,15.6448819
228,8,0.99,-0.1,0.5,3,2.32634787404084,0.05,1.348,1.9539133,1.39261027694997,2.27981075962974,2.48708888922575,25.9225474,1.886,15.5826214,1.886,15.6086489
229,9,0.99,-0.1,0.5,1,2.32634787404084,0.01,1.7,0.2609808,1.52951684425201,NaN,NaN,0.0055185,3.5,0.244376,3.5,0.2410192
230,9,0.99,-0.1,0.5,1,2.32634787404084,0.05,1.7,0.2562686,1.52951684425201,NaN,NaN,0.0049849,3.5,0.2458561,3.5,0.2491132
231,9,0.99,-0.1,0.5,2,2.32634787404084,0.01,1.57,0.3570319,1.62445910393857,2.54342160876133,2.95785939354134,0.0922497,1.97,1.7081487,1.97,1.7173869
232,9,0.99,-0.1,0.5,2,2.32634787404084,0.05,1.57,0.3533764,1.62445910393857,2.54342160876133,2.95785939354134,0.1103359,1.97,1.7066934,1.97,1.7284487
233,9,0.99,-0.1,0.5,3,2.32634787404084,0.01,1.254,1.9946221,1.68179485146591,2.55584330228148,2.95856444871702,25.1963225,1.859,18.6894119,1.859,16.0206735
234,9,0.99,-0.1,0.5,3,2.32634787404084,0.05,1.254,1.9567025,1.68179485146591,2.55584330228148,2.95856444871702,24.8370347,1.859,16.1366557,1.859,16.0291226
235,10,0.99,-0.1,0.5,1,2.32634787404084,0.01,1,0.0964543,1.34412622873901,2.27288776333902,NaN,0.0071988,3.6,0.2624277,3.6,0.2664934
236,10,0.99,-0.1,0.5,1,2.32634787404084,0.05,1.5,0.2874745,1.34412622873901,2.27288776333902,NaN,0.005821,3.6,0.2634262,3.6,0.2727441
237,10,0.99,-0.1,0.5,2,2.32634787404084,0.01,1.39,0.3970496,1.40925578160337,2.17721444892903,2.84517449091556,0.0845613,3.6,2.2272056,3.6,2.1615184
238,10,0.99,-0.1,0.5,2,2.32634787404084,0.05,1.39,0.3981586,1.40925578160337,2.17721444892903,2.84517449091556,0.0962209,3.6,2.1746421,3.6,2.2801625
239,10,0.99,-0.1,0.5,3,2.32634787404084,0.01,1.39,2.0175777,1.46364370239878,2.17253854750586,2.82744792976452,24.2220898,3.596,17.2428842,3.596,17.3369794
240,10,0.99,-0.1,0.5,3,2.32634787404084,0.05,1.39,2.0201776,1.46364370239878,2.17253854750586,2.82744792976452,24.4979837,3.596,17.172198,3.596,17.1069854
241,1,0.99,-0.1,1,1,2.32634787404084,0.01,2.3,0.3564083,1.23179173638557,2.47805130436125,NaN,0.0060076,1.7,0.1628406,1.7,0.1578514
242,1,0.99,-0.1,1,1,2.32634787404084,0.05,2.3,0.3573234,1.23179173638557,2.47805130436125,NaN,0.0060142,1.8,0.1662656,1.7,0.1607101
243,1,0.99,-0.1,1,2,2.32634787404084,0.01,2.33,0.466598,1.30360601984738,2.40520311106749,3.33980296985269,0.1064708,1.36,1.2634973,1.35,1.2603999
244,1,0.99,-0.1,1,2,2.32634787404084,0.05,2.33,0.4764182,1.30360601984738,2.40520311106749,3.33980296985269,0.0948047,1.36,1.2705142,1.36,1.2678476
245,1,0.99,-0.1,1,3,2.32634787404084,0.01,2.332,2.6990804,1.37689277953846,2.39292793439942,2.78513437483942,25.4813511,1.355,12.5970382,1.349,12.469429
246,1,0.99,-0.1,1,3,2.32634787404084,0.05,2.332,2.8225102,1.37689277953846,2.39292793439942,2.78513437483942,25.1797062,1.359,13.00859,1.355,13.0734907
247,2,0.99,-0.1,1,1,2.32634787404084,0.01,2.3,0.4086542,1.24929680084822,2.45255085816407,NaN,0.0073328,1.5,0.154611,1.5,0.1512112
248,2,0.99,-0.1,1,1,2.32634787404084,0.05,2.3,0.3780712,1.24929680084822,2.45255085816407,NaN,0.0072215,1.7,0.1689057,1.5,0.1523668
249,2,0.99,-0.1,1,2,2.32634787404084,0.01,2.36,0.4802564,1.32129220328927,2.39611972269488,3.14052950956313,0.1142494,1.46,1.394058,1.46,1.388505
250,2,0.99,-0.1,1,2,2.32634787404084,0.05,2.36,0.4825531,1.32129220328927,2.39611972269488,3.14052950956313,0.1098089,1.46,1.4570969,1.46,1.392262
251,2,0.99,-0.1,1,3,2.32634787404084,0.01,2.347,2.551523,1.39300378876583,2.38505365989891,3.20286618979102,24.8239214,1.462,14.1950453,1.45,13.8161309
252,2,0.99,-0.1,1,3,2.32634787404084,0.05,2.347,2.5623308,1.39300378876583,2.38505365989891,3.20286618979102,24.8254279,1.462,14.0944816,1.462,14.3203591
253,3,0.99,-0.1,1,1,2.32634787404084,0.01,2.3,0.3489157,1.3314720339004,2.54192515499485,NaN,0.0069818,1.6,0.1578253,1.6,0.1561054
254,3,0.99,-0.1,1,1,2.32634787404084,0.05,2.3,0.3524132,1.3314720339004,2.54192515499485,NaN,0.0066481,1.7,0.1611584,1.6,0.15974
255,3,0.99,-0.1,1,2,2.32634787404084,0.01,2.38,0.4613919,1.4020433412311,2.53024944982683,3.90426162739096,0.1099859,1.64,1.4645627,1.62,1.4632221
256,3,0.99,-0.1,1,2,2.32634787404084,0.05,2.38,0.4416772,1.4020433412311,2.53024944982683,3.90426162739096,0.090453,1.64,1.4760474,1.64,1.4574042
257,3,0.99,-0.1,1,3,2.32634787404084,0.01,2.328,2.6397313,1.43350034538351,2.53802162866834,3.86372016667041,25.3683489,1.627,14.6603728,1.583,14.4237182
258,3,0.99,-0.1,1,3,2.32634787404084,0.05,2.328,2.6303725,1.43350034538351,2.53802162866834,3.86372016667041,24.9866974,1.641,14.4876984,1.633,14.4298838
259,4,0.99,-0.1,1,1,2.32634787404084,0.01,1.6,0.2503338,1.53666630085298,2.81400137994551,NaN,0.0064385,1.4,0.1414109,1.3,0.1340032
260,4,0.99,-0.1,1,1,2.32634787404084,0.05,1.6,0.2480383,1.53666630085298,2.81400137994551,NaN,0.0061308,1.4,0.1391003,1.4,0.1413352
261,4,0.99,-0.1,1,2,2.32634787404084,0.01,2.35,0.6086941,1.57975409188642,2.87211660513107,NaN,0.0851046,1.32,1.3682769,1.32,1.4209452
262,4,0.99,-0.1,1,2,2.32634787404084,0.05,2.35,0.6691458,1.57975409188642,2.87211660513107,NaN,0.1161149,1.33,1.3907606,1.33,1.2732371
263,4,0.99,-0.1,1,3,2.32634787404084,0.01,1.741,2.328417,1.64602028485654,2.88054444150578,NaN,24.3509363,1.317,12.4279332,1.317,12.7867822
264,4,0.99,-0.1,1,3,2.32634787404084,0.05,1.741,2.3382677,1.64602028485654,2.88054444150578,NaN,24.3967638,1.331,12.4713362,1.317,12.4057632
265,5,0.99,-0.1,1,1,2.32634787404084,0.01,2.3,0.343113,1.34268942974802,3.08871409177351,NaN,0.0060959,1.6,0.1506008,1.4,0.1374126
266,5,0.99,-0.1,1,1,2.32634787404084,0.05,2.3,0.3321936,1.34268942974802,3.08871409177351,NaN,0.0061192,1.7,0.1689845,1.6,0.1620931
267,5,0.99,-0.1,1,2,2.32634787404084,0.01,2.27,0.6118868,1.43909606738292,3.08845580164697,NaN,0.1035936,1.42,1.3465756,1.26,1.4484636
268,5,0.99,-0.1,1,2,2.32634787404084,0.05,2.27,0.789247,1.43909606738292,3.08845580164697,NaN,0.1246416,1.61,1.4998075,1.59,1.445263
269,5,0.99,-0.1,1,3,2.32634787404084,0.01,2.269,2.4904632,1.57948002894977,2.50178703345638,3.08351889319663,24.8250952,1.422,13.2086968,1.262,12.2731026
270,5,0.99,-0.1,1,3,2.32634787404084,0.05,2.269,2.4882024,1.57948002894977,2.50178703345638,3.08351889319663,24.7662314,1.607,14.4081176,1.592,13.9587093
271,6,0.99,-0.1,1,1,2.32634787404084,0.01,2.3,0.4255099,1.39137213379501,NaN,NaN,0.0069026,1.4,0.1438767,1.2,0.1293918
272,6,0.99,-0.1,1,1,2.32634787404084,0.05,2.3,0.4144336,1.39137213379501,NaN,NaN,0.0063987,2,0.1754785,1.4,0.1445618
273,6,0.99,-0.1,1,2,2.32634787404084,0.01,2.31,0.4824332,1.4994141244984,2.37263411440988,3.67028129792028,0.1083227,1.23,1.2174452,0.94,1.0318138
274,6,0.99,-0.1,1,2,2.32634787404084,0.05,2.31,0.4623917,1.4994141244984,2.37263411440988,3.67028129792028,0.1040836,1.34,1.2812218,1.32,1.2621
275,6,0.99,-0.1,1,3,2.32634787404084,0.01,1.639,2.5245913,1.5832495588439,2.34400703865265,3.04813916789997,26.0479502,1.225,12.4254301,0.948,10.3020345
276,6,0.99,-0.1,1,3,2.32634787404084,0.05,1.639,2.5207496,1.5832495588439,2.34400703865265,3.04813916789997,25.7470111,1.339,12.7508733,1.321,13.0634782
277,7,0.99,-0.1,1,1,2.32634787404084,0.01,2.3,0.4049048,1.31575328104814,2.53921648035192,3.20473105417998,0.0071424,1.5,0.1495285,1.3,0.1335656
278,7,0.99,-0.1,1,1,2.32634787404084,0.05,2.3,0.3931105,1.31575328104814,2.53921648035192,3.20473105417998,0.0068536,1.5,0.1510176,1.5,0.1445216
279,7,0.99,-0.1,1,2,2.32634787404084,0.01,2.33,0.5002314,1.44788725474458,2.43105614462806,2.78407315470402,0.1130862,1.34,1.2832538,1.33,1.3043299
280,7,0.99,-0.1,1,2,2.32634787404084,0.05,2.33,0.4923788,1.44788725474458,2.43105614462806,2.78407315470402,0.1053344,1.52,1.3760797,1.52,1.3795679
281,7,0.99,-0.1,1,3,2.32634787404084,0.01,2.33,2.7007156,1.57288016860494,2.39151755158571,2.79198216436432,26.0392324,1.335,13.0854472,1.332,13.1443358
282,7,0.99,-0.1,1,3,2.32634787404084,0.05,2.33,2.7069067,1.57288016860494,2.39151755158571,2.79198216436432,25.6069239,1.517,13.8925782,1.51,13.7301361
283,8,0.99,-0.1,1,1,2.32634787404084,0.01,2.3,0.3623633,1.3111237026511,2.50901649325818,NaN,0.0064792,1.5,0.1471449,1.5,0.1511874
284,8,0.99,-0.1,1,1,2.32634787404084,0.05,2.3,0.362763,1.3111237026511,2.50901649325818,NaN,0.00593,1.6,0.1579107,1.5,0.1507503
285,8,0.99,-0.1,1,2,2.32634787404084,0.01,2.33,0.4748307,1.43120378354927,2.42014644844498,3.21812683422202,0.101688,1.46,1.3674851,1.46,1.4678492
286,8,0.99,-0.1,1,2,2.32634787404084,0.05,2.33,0.5236693,1.43120378354927,2.42014644844498,3.21812683422202,0.1094703,1.5,1.4612494,1.46,1.4586696
287,8,0.99,-0.1,1,3,2.32634787404084,0.01,2.349,2.4507642,1.51556539785495,2.40159060663136,3.20972938470961,25.3759911,1.374,12.6888119,1.374,12.9827201
288,8,0.99,-0.1,1,3,2.32634787404084,0.05,2.349,2.4770503,1.51556539785495,2.40159060663136,3.20972938470961,25.5826397,1.475,13.1506943,1.461,13.1861786
289,9,0.99,-0.1,1,1,2.32634787404084,0.01,1.6,0.2664935,1.63305401252575,2.45195301281784,NaN,0.0057606,1.5,0.14853,1.5,0.1829617
290,9,0.99,-0.1,1,1,2.32634787404084,0.05,1.6,0.2278739,1.63305401252575,2.45195301281784,NaN,0.0063721,1.6,0.1638312,1.6,0.1786121
291,9,0.99,-0.1,1,2,2.32634787404084,0.01,1.7,0.361563,1.67673906835198,2.39368802374999,3.01355342313132,0.099328,1.37,1.3918033,1.31,1.2981596
292,9,0.99,-0.1,1,2,2.32634787404084,0.05,1.7,0.363044,1.67673906835198,2.39368802374999,3.01355342313132,0.0988683,1.62,1.472305,1.62,1.4647421
293,9,0.99,-0.1,1,3,2.32634787404084,0.01,1.662,1.9343181,1.70371233583349,2.37261534977948,3.0225549308416,24.4181646,1.316,12.8538611,1.311,12.7878893
294,9,0.99,-0.1,1,3,2.32634787404084,0.05,1.662,1.9040127,1.70371233583349,2.37261534977948,3.0225549308416,24.5467257,1.614,14.3722625,1.614,14.1531987
295,10,0.99,-0.1,1,1,2.32634787404084,0.01,2.3,0.3618362,1.36653293930225,NaN,NaN,0.0060351,1.6,0.1536682,1.3,0.1326886
296,10,0.99,-0.1,1,1,2.32634787404084,0.05,2.3,0.3528005,1.36653293930225,NaN,NaN,0.005927,1.8,0.1718279,1.6,0.1549203
297,10,0.99,-0.1,1,2,2.32634787404084,0.01,2.3,0.5292798,1.4854040367126,2.418617042706,3.2158968677433,0.121295,1.36,1.2955341,1.16,1.1703857
298,10,0.99,-0.1,1,2,2.32634787404084,0.05,2.3,0.5039875,1.4854040367126,2.418617042706,3.2158968677433,0.1066135,1.45,1.3448587,1.45,1.3521199
299,10,0.99,-0.1,1,3,2.32634787404084,0.01,2.309,2.6453929,1.53049334081026,2.36556898313782,3.19447948060651,23.8142047,1.361,13.2724733,1.163,11.6800188
300,10,0.99,-0.1,1,3,2.32634787404084,0.05,2.309,2.6594352,1.53049334081026,2.36556898313782,3.19447948060651,23.4122016,1.452,13.2661584,1.433,13.5925831
301,1,0.99,-0.1,2,1,2.32634787404084,0.01,2.3,0.2396745,0.80690438783177,2.45361114859013,3.89341050137191,0.0092221,7.3,0.3715427,1.3,0.1287285
302,1,0.99,-0.1,2,1,2.32634787404084,0.05,2.3,0.2457763,0.80690438783177,2.45361114859013,3.89341050137191,0.0103165,7.3,0.3895023,7.3,0.3685944
303,1,0.99,-0.1,2,2,2.32634787404084,0.01,2.32,0.3813821,0.946918881767159,2.38592508055211,3.92003748472452,0.1253958,1.35,1.2736256,1.3,1.2025826
304,1,0.99,-0.1,2,2,2.32634787404084,0.05,2.32,0.3645161,0.946918881767159,2.38592508055211,3.92003748472452,0.1090525,2.04,1.6524033,1.35,1.2467787
305,1,0.99,-0.1,2,3,2.32634787404084,0.01,2.325,2.3652089,1.06731549424516,2.37619821129053,3.92686771335731,24.1119241,1.346,12.6742374,1.302,12.5332909
306,1,0.99,-0.1,2,3,2.32634787404084,0.05,2.325,2.4282822,1.06731549424516,2.37619821129053,3.92686771335731,24.2806406,2.037,15.5925839,1.346,12.6288893
307,2,0.99,-0.1,2,1,2.32634787404084,0.01,2.3,0.2474034,0.751390283515563,2.42991551868246,4.43027745854808,0.0083288,1.5,0.1383028,1.5,0.1354012
308,2,0.99,-0.1,2,1,2.32634787404084,0.05,2.3,0.2518462,0.751390283515563,2.42991551868246,4.43027745854808,0.0086992,7.1,0.3811827,1.5,0.1400518
309,2,0.99,-0.1,2,2,2.32634787404084,0.01,2.32,0.4061347,0.909501111736833,2.37202542702311,4.4369948434345,0.1460351,1.52,1.3354813,1.51,1.3263944
310,2,0.99,-0.1,2,2,2.32634787404084,0.05,2.32,0.406754,0.909501111736833,2.37202542702311,4.4369948434345,0.110487,7.05,2.5200222,1.52,1.5329125
311,2,0.99,-0.1,2,3,2.32634787404084,0.01,2.326,2.5455157,1.05457100691345,2.36260884880781,4.45224031825627,26.3071703,1.517,12.9585854,1.498,13.0093949
312,2,0.99,-0.1,2,3,2.32634787404084,0.05,2.326,2.4301703,1.05457100691345,2.36260884880781,4.45224031825627,26.2212015,7.055,16.702283,1.517,13.2193187
313,3,0.99,-0.1,2,1,2.32634787404084,0.01,2.3,0.4054064,1.10788674513053,2.45450888550771,NaN,0.0076504,1.7,0.1517522,1.7,0.1519273
314,3,0.99,-0.1,2,1,2.32634787404084,0.05,2.3,0.3861956,1.10788674513053,2.45450888550771,NaN,0.0083174,1.8,0.1575094,1.7,0.1774388
315,3,0.99,-0.1,2,2,2.32634787404084,0.01,2.33,0.3836442,1.20236103864268,2.40837897938621,3.95986129846481,0.1101719,1.69,1.4605835,1.68,1.4715554
316,3,0.99,-0.1,2,2,2.32634787404084,0.05,2.33,0.3833317,1.20236103864268,2.40837897938621,3.95986129846481,0.1090881,1.75,1.5452799,1.69,1.4673236
317,3,0.99,-0.1,2,3,2.32634787404084,0.01,2.327,2.6219251,1.30990922001017,2.40191060564344,3.89027849584624,24.7149916,1.685,14.0987363,1.685,14.093922
318,3,0.99,-0.1,2,3,2.32634787404084,0.05,2.327,2.7174519,1.30990922001017,2.40191060564344,3.89027849584624,24.4442059,1.751,14.4192255,1.685,14.0868936
319,4,0.99,-0.1,2,1,2.32634787404084,0.01,2.3,0.2497206,0.780663139337648,2.46572397579903,3.54227360987303,0.009681,7.4,0.3733243,7.4,0.371443
320,4,0.99,-0.1,2,1,2.32634787404084,0.05,2.3,0.2310013,0.780663139337648,2.46572397579903,3.54227360987303,0.0107043,7.4,0.3728894,7.4,0.3613175
321,4,0.99,-0.1,2,2,2.32634787404084,0.01,2.32,0.2744695,0.909680351131719,2.387034751999,3.60120566118411,0.1171204,2.2,1.7556479,2.17,1.7422253
322,4,0.99,-0.1,2,2,2.32634787404084,0.05,2.32,0.2482477,0.909680351131719,2.387034751999,3.60120566118411,0.144013,7.45,2.3750544,7.45,2.4867513
323,4,0.99,-0.1,2,3,2.32634787404084,0.01,2.325,2.4325951,1.05869069478879,2.38170168726279,3.5727903141187,25.6152246,2.169,15.7741827,2.094,15.4413379
324,4,0.99,-0.1,2,3,2.32634787404084,0.05,2.325,2.3494963,1.05869069478879,2.38170168726279,3.5727903141187,25.8092791,7.449,16.8128945,2.197,15.7045264
325,5,0.99,-0.1,2,1,2.32634787404084,0.01,2.3,0.2617122,0.902461685401269,2.49453484394582,3.49795064738516,0.008671,1.6,0.1498965,1.5,0.1397794
326,5,0.99,-0.1,2,1,2.32634787404084,0.05,2.3,0.2653673,0.902461685401269,2.49453484394582,3.49795064738516,0.008735,1.6,0.152833,1.6,0.1452818
327,5,0.99,-0.1,2,2,2.32634787404084,0.01,2.32,0.3847635,1.03021870681976,2.41583848596341,3.46410294669841,0.1348088,1.58,1.3965647,1.53,1.3828161
328,5,0.99,-0.1,2,2,2.32634787404084,0.05,2.32,0.3688733,1.03021870681976,2.41583848596341,3.46410294669841,0.1320266,1.62,1.4209425,1.61,1.4169255
329,5,0.99,-0.1,2,3,2.32634787404084,0.01,2.324,2.6133783,1.14973470433041,2.38563545640702,3.47317106165483,26.1427967,1.524,13.4588945,1.524,13.4491512
330,5,0.99,-0.1,2,3,2.32634787404084,0.05,2.324,2.6271288,1.14973470433041,2.38563545640702,3.47317106165483,26.3457215,1.607,14.1281375,1.607,13.6768674
331,6,0.99,-0.1,2,1,2.32634787404084,0.01,2.3,0.3818955,1.10892167472769,3.48715502250584,4.42085756326321,0.0081688,2,0.1716049,1.2,0.1246791
332,6,0.99,-0.1,2,1,2.32634787404084,0.05,2.3,0.3875082,1.10892167472769,3.48715502250584,4.42085756326321,0.007905,2,0.1682187,2,0.1651952
333,6,0.99,-0.1,2,2,2.32634787404084,0.01,2.31,0.3887157,1.25229177954488,3.56635356444725,4.46004502092658,0.1040935,1.99,1.6186282,1.16,1.1098658
334,6,0.99,-0.1,2,2,2.32634787404084,0.05,2.31,0.3977811,1.25229177954488,3.56635356444725,4.46004502092658,0.1042436,2.02,1.6336737,2.02,1.6488507
335,6,0.99,-0.1,2,3,2.32634787404084,0.01,2.317,2.4434381,1.39437958139387,2.38613092945952,3.54839011615999,25.1915648,1.986,15.5951735,1.157,11.0166747
336,6,0.99,-0.1,2,3,2.32634787404084,0.05,2.317,2.4537165,1.39437958139387,2.38613092945952,3.54839011615999,24.9566673,2.019,15.5240348,2.019,15.7412
337,7,0.99,-0.1,2,1,2.32634787404084,0.01,2.3,0.2806087,1.01054938212966,2.96507021645267,4.14226693875531,0.0083193,1.7,0.1492809,1.7,0.1486453
338,7,0.99,-0.1,2,1,2.32634787404084,0.05,2.3,0.2803999,1.01054938212966,2.96507021645267,4.14226693875531,0.007842,1.8,0.1583489,1.8,0.1559758
339,7,0.99,-0.1,2,2,2.32634787404084,0.01,2.32,0.377809,1.1111232917474,2.38952963770036,2.87414233525082,0.1182842,1.69,1.4447394,1.32,1.2100888
340,7,0.99,-0.1,2,2,2.32634787404084,0.05,2.32,0.3838539,1.1111232917474,2.38952963770036,2.87414233525082,0.1363374,1.79,1.5119259,1.7,1.4685417
341,7,0.99,-0.1,2,3,2.32634787404084,0.01,2.325,2.2285577,1.22092762613895,2.37209320289122,2.87300763812321,25.8277859,1.393,12.6737607,1.309,12.4438339
342,7,0.99,-0.1,2,3,2.32634787404084,0.05,2.325,2.231983,1.22092762613895,2.37209320289122,2.87300763812321,25.2431945,1.788,14.9729349,1.7,14.2859996
343,8,0.99,-0.1,2,1,2.32634787404084,0.01,2.4,0.4397689,1.12543490188769,2.51157357489948,3.83842755091162,0.0091558,1.6,0.1483267,1.5,0.1462923
344,8,0.99,-0.1,2,1,2.32634787404084,0.05,2.4,0.4681833,1.12543490188769,2.51157357489948,3.83842755091162,0.008889,1.6,0.1551153,1.6,0.203191
345,8,0.99,-0.1,2,2,2.32634787404084,0.01,2.37,0.4083392,1.24624167002072,2.4595599250665,2.88958938060848,0.1235624,1.48,1.4196105,1.48,1.4281422
346,8,0.99,-0.1,2,2,2.32634787404084,0.05,2.37,0.3747654,1.24624167002072,2.4595599250665,2.88958938060848,0.1310537,1.61,1.4388201,1.6,1.4036304
347,8,0.99,-0.1,2,3,2.32634787404084,0.01,2.373,2.482417,1.32941906367351,2.43817220353237,2.85683668422245,25.7564385,1.481,13.1147236,1.475,13.0775011
348,8,0.99,-0.1,2,3,2.32634787404084,0.05,2.373,2.5078164,1.32941906367351,2.43817220353237,2.85683668422245,26.6356727,1.598,13.4030726,1.594,13.7215963
349,9,0.99,-0.1,2,1,2.32634787404084,0.01,2.3,0.2613561,0.843620834506893,3.26042698814132,4.74294856180749,0.0090515,1.7,0.1552189,1.5,0.1393405
350,9,0.99,-0.1,2,1,2.32634787404084,0.05,2.3,0.2586678,0.843620834506893,3.26042698814132,4.74294856180749,0.0080406,6.3,0.3423311,6.3,0.339841
351,9,0.99,-0.1,2,2,2.32634787404084,0.01,2.37,0.3751126,0.933639269447004,3.22082517704354,4.69695178333525,0.1247929,1.55,1.3422862,1.45,1.2766354
352,9,0.99,-0.1,2,2,2.32634787404084,0.05,3.75,0.5846542,0.933639269447004,3.22082517704354,4.69695178333525,0.1258132,2.18,1.7196187,2.18,1.6887294
353,9,0.99,-0.1,2,3,2.32634787404084,0.01,2.321,2.3302628,1.08085371710252,3.22915321548831,4.68649121180998,24.7403531,1.443,12.5004998,1.443,12.6552696
354,9,0.99,-0.1,2,3,2.32634787404084,0.05,2.321,2.4224871,1.08085371710252,3.22915321548831,4.68649121180998,24.7737426,2.177,15.3225476,1.547,13.0233015
355,10,0.99,-0.1,2,1,2.32634787404084,0.01,2.3,0.2505117,1.00310239338973,2.4925593025424,4.14301466998741,0.0087646,2.1,0.1770041,1.4,0.1333192
356,10,0.99,-0.1,2,1,2.32634787404084,0.05,2.3,0.2407394,1.00310239338973,2.4925593025424,4.14301466998741,0.0085587,6.9,0.3406042,2.1,0.1744209
357,10,0.99,-0.1,2,2,2.32634787404084,0.01,2.32,0.2604065,1.11807806176188,2.41746213165845,4.0560950631667,0.1320709,1.62,1.4160661,1.43,1.2925668
358,10,0.99,-0.1,2,2,2.32634787404084,0.05,2.32,0.2499547,1.11807806176188,2.41746213165845,4.0560950631667,0.0989623,2.1,1.7002892,2.02,1.6500063
359,10,0.99,-0.1,2,3,2.32634787404084,0.01,2.321,2.5256079,1.23381422941666,2.39668059212635,4.04266908947368,25.5027253,1.425,12.7925499,1.425,12.8528553
360,10,0.99,-0.1,2,3,2.32634787404084,0.05,2.321,2.5441859,1.23381422941666,2.39668059212635,4.04266908947368,26.0313955,2.094,15.9743783,2.018,15.3631787
361,1,0.99,-0.05,0.5,1,2.32634787404084,0.01,1.6,0.1938883,1.66546647611879,NaN,NaN,0.0049915,3.6,0.263324,3.6,0.2604247
362,1,0.99,-0.05,0.5,1,2.32634787404084,0.05,1.6,0.1842361,1.66546647611879,NaN,NaN,0.0050248,3.6,0.2586818,3.6,0.2581946
363,1,0.99,-0.05,0.5,2,2.32634787404084,0.01,1.64,0.4758787,1.76834971212745,2.67498794176093,NaN,0.0932654,1.86,1.7083209,1.86,1.7034683
364,1,0.99,-0.05,0.5,2,2.32634787404084,0.05,1.64,0.4542875,1.76834971212745,2.67498794176093,NaN,0.0832414,1.86,1.7032417,1.86,1.693723
365,1,0.99,-0.05,0.5,3,2.32634787404084,0.01,1.641,1.932901,1.65820327656906,1.80962596049545,2.66740239076596,24.5989957,1.766,16.3681669,1.766,15.9577114
366,1,0.99,-0.05,0.5,3,2.32634787404084,0.05,1.641,1.9212839,1.65820327656906,1.80962596049545,2.66740239076596,24.4799911,1.766,16.4872014,1.832,16.0710402
367,2,0.99,-0.05,0.5,1,2.32634787404084,0.01,1.6,0.2724432,1.51583152106296,2.32645156766721,NaN,0.0057094,3.6,0.2611567,3.6,0.2642813
368,2,0.99,-0.05,0.5,1,2.32634787404084,0.05,1.6,0.2659305,1.51583152106296,2.32645156766721,NaN,0.0056716,3.6,0.2634229,3.6,0.2669286
369,2,0.99,-0.05,0.5,2,2.32634787404084,0.01,1.64,0.3514002,1.56958258906552,2.2045621615317,NaN,0.0741587,1.64,1.5938513,1.64,1.5791047
370,2,0.99,-0.05,0.5,2,2.32634787404084,0.05,1.64,0.3577178,1.56958258906552,2.2045621615317,NaN,0.1147389,1.64,1.5824407,1.64,1.585654
371,2,0.99,-0.05,0.5,3,2.32634787404084,0.01,1.344,1.8661929,1.61286101649844,2.18102899269681,NaN,24.5297929,1.613,15.6206639,1.613,15.0490312
372,2,0.99,-0.05,0.5,3,2.32634787404084,0.05,1.344,1.8757794,1.61286101649844,2.18102899269681,NaN,24.8252989,1.642,15.7276087,1.642,15.8475442
373,3,0.99,-0.05,0.5,1,2.32634787404084,0.01,1.6,0.1999487,1.66292950863342,2.49549894508412,NaN,0.005252,3.7,0.2534376,3.7,0.2619854
374,3,0.99,-0.05,0.5,1,2.32634787404084,0.05,1.6,0.1928848,1.66292950863342,2.49549894508412,NaN,0.0053611,3.7,0.2497373,3.7,0.2483848
375,3,0.99,-0.05,0.5,2,2.32634787404084,0.01,1.65,0.3764731,1.6625157229749,2.44314759961198,3.08903644308591,0.102747,1.54,1.4889588,1.54,1.4737924
376,3,0.99,-0.05,0.5,2,2.32634787404084,0.05,1.65,0.3785301,1.6625157229749,2.44314759961198,3.08903644308591,0.1015803,1.54,1.4878875,1.54,1.4906406
377,3,0.99,-0.05,0.5,3,2.32634787404084,0.01,1.336,1.8309948,1.64859979020848,2.42909811088888,3.10860835504092,23.2797652,1.438,14.0896509,1.438,14.4472255
378,3,0.99,-0.05,0.5,3,2.32634787404084,0.05,1.336,1.841153,1.64859979020848,2.42909811088888,3.10860835504092,23.0880951,1.476,14.5669042,1.438,14.017339
379,4,0.99,-0.05,0.5,1,2.32634787404084,0.01,1.5,0.2264519,1.61652426624299,NaN,NaN,0.0048914,3.5,0.2514093,3.5,0.2494894
380,4,0.99,-0.05,0.5,1,2.32634787404084,0.05,1.5,0.2163356,1.61652426624299,NaN,NaN,0.0048386,3.5,0.2480702,3.5,0.3178743
381,4,0.99,-0.05,0.5,2,2.32634787404084,0.01,1.44,0.5262356,1.7105980321383,2.57131808726314,NaN,0.0956143,1.74,1.7898987,1.74,1.7447587
382,4,0.99,-0.05,0.5,2,2.32634787404084,0.05,1.44,0.5180005,1.7105980321383,2.57131808726314,NaN,0.093272,1.74,1.6323136,1.74,1.648269
383,4,0.99,-0.05,0.5,3,2.32634787404084,0.01,1.44,1.9224259,1.76341015569549,2.56516519890232,NaN,25.3786444,1.736,16.181046,1.736,16.0835415
384,4,0.99,-0.05,0.5,3,2.32634787404084,0.05,1.44,2.0112919,1.76341015569549,2.56516519890232,NaN,25.1301164,1.736,15.8706274,1.736,16.2194186
385,5,0.99,-0.05,0.5,1,2.32634787404084,0.01,1,0.0888246,1.35860151132033,NaN,NaN,0.0049515,3.6,0.2593994,3.6,0.2739051
386,5,0.99,-0.05,0.5,1,2.32634787404084,0.05,1.4,0.2092171,1.35860151132033,NaN,NaN,0.0051803,3.6,0.2621905,3.6,0.2615628
387,5,0.99,-0.05,0.5,2,2.32634787404084,0.01,1.06,0.2450313,1.40119948396283,2.41524041846844,2.72551691457388,0.0793103,1.9,1.6947732,1.9,1.8313948
388,5,0.99,-0.05,0.5,2,2.32634787404084,0.05,1.43,0.3755541,1.40119948396283,2.41524041846844,2.72551691457388,0.1166919,1.9,1.8670403,1.9,1.852878
389,5,0.99,-0.05,0.5,3,2.32634787404084,0.01,1.437,1.8948701,1.41572583900181,2.39886084403231,2.72449692967385,24.9944263,1.88,16.3871433,1.88,16.2678558
390,5,0.99,-0.05,0.5,3,2.32634787404084,0.05,1.437,1.9547505,1.41572583900181,2.39886084403231,2.72449692967385,25.2608452,1.88,16.065704,1.88,16.3900488
391,6,0.99,-0.05,0.5,1,2.32634787404084,0.01,1.8,0.193258,NaN,NaN,NaN,0.0086444,2.2,0.1957376,2.2,0.1955903
392,6,0.99,-0.05,0.5,1,2.32634787404084,0.05,1.8,0.1859672,NaN,NaN,NaN,0.004108,2.2,0.2172637,2.2,0.1948925
393,6,0.99,-0.05,0.5,2,2.32634787404084,0.01,1.83,0.4888393,1.87651583094892,2.63008659753864,NaN,0.1008606,1.65,1.6210751,1.65,1.599983
394,6,0.99,-0.05,0.5,2,2.32634787404084,0.05,1.83,0.4737571,1.87651583094892,2.63008659753864,NaN,0.0880234,1.65,1.6084174,1.65,1.7169646
395,6,0.99,-0.05,0.5,3,2.32634787404084,0.01,1.847,2.5470544,1.86067787126561,2.64926041443224,NaN,24.1758585,1.612,15.4758114,1.612,15.8079629
396,6,0.99,-0.05,0.5,3,2.32634787404084,0.05,1.847,2.4372606,1.86067787126561,2.64926041443224,NaN,24.1293576,1.612,15.5621894,1.612,15.9074526
397,7,0.99,-0.05,0.5,1,2.32634787404084,0.01,1.5,0.2119663,NaN,NaN,NaN,0.003007,3.6,0.2472504,3.6,0.2483539
398,7,0.99,-0.05,0.5,1,2.32634787404084,0.05,2.6,0.8060249,NaN,NaN,NaN,0.0029659,3.6,0.2481256,3.6,0.2491019
399,7,0.99,-0.05,0.5,2,2.32634787404084,0.01,1.4,0.3813763,1.82575573760825,2.62021537219198,2.77229143963388,0.0875088,1.56,1.5850999,1.56,1.5647283
400,7,0.99,-0.05,0.5,2,2.32634787404084,0.05,1.93,0.6090002,1.82575573760825,2.62021537219198,2.77229143963388,0.1031636,1.56,1.5781947,1.56,1.5833533
401,7,0.99,-0.05,0.5,3,2.32634787404084,0.01,1.404,1.996609,1.87724838269011,2.58463969260493,NaN,25.7178052,1.504,15.2610892,1.504,15.5209017
402,7,0.99,-0.05,0.5,3,2.32634787404084,0.05,1.404,1.9737354,1.87724838269011,2.58463969260493,NaN,25.766478,1.55,15.5442658,1.55,15.4447879
403,8,0.99,-0.05,0.5,1,2.32634787404084,0.01,1,0.1079839,1.47089234534017,NaN,NaN,0.0049309,3.6,0.2559089,3.6,0.2526903
404,8,0.99,-0.05,0.5,1,2.32634787404084,0.05,1.4,0.2016412,1.47089234534017,NaN,NaN,0.0057878,3.6,0.2563933,3.6,0.2528375
405,8,0.99,-0.05,0.5,2,2.32634787404084,0.01,1.91,0.3700487,1.65499183613773,2.37431103686297,2.97909261677167,0.102489,1.76,1.7584371,1.76,1.6998283
406,8,0.99,-0.05,0.5,2,2.32634787404084,0.05,1.91,0.3596432,1.65499183613773,2.37431103686297,2.97909261677167,0.0836145,1.76,1.6257802,1.76,1.6305559
407,8,0.99,-0.05,0.5,3,2.32634787404084,0.01,1.485,1.8941226,1.48955240426646,1.75595354774769,2.36464496828645,24.7789607,1.717,15.5321287,1.712,15.4640029
408,8,0.99,-0.05,0.5,3,2.32634787404084,0.05,1.485,1.9145686,1.48955240426646,1.75595354774769,2.36464496828645,25.0821005,1.717,15.5838502,1.717,15.4906431
409,9,0.99,-0.05,0.5,1,2.32634787404084,0.01,0.9,0.1019258,1.82607664291139,NaN,NaN,0.0048523,3.7,0.2510658,3.7,0.250131
410,9,0.99,-0.05,0.5,1,2.32634787404084,0.05,1.7,0.2016952,1.82607664291139,NaN,NaN,0.0050578,3.7,0.2566443,3.7,0.2536647
411,9,0.99,-0.05,0.5,2,2.32634787404084,0.01,1.72,0.3465854,1.74878154821466,2.98863232450496,NaN,0.0940811,3.66,2.2101144,3.66,2.2336325
412,9,0.99,-0.05,0.5,2,2.32634787404084,0.05,1.72,0.367688,1.74878154821466,2.98863232450496,NaN,0.0985934,3.66,2.2362365,3.66,2.3531604
413,9,0.99,-0.05,0.5,3,2.32634787404084,0.01,1.478,2.0313353,1.73444674249057,2.26579811015047,2.67044364050532,25.2431593,1.82,16.028125,1.82,15.8363386
414,9,0.99,-0.05,0.5,3,2.32634787404084,0.05,1.478,1.9067046,1.73444674249057,2.26579811015047,2.67044364050532,25.2239815,1.82,16.1644126,1.82,16.0233469
415,10,0.99,-0.05,0.5,1,2.32634787404084,0.01,1.5,0.2907812,1.47273707350863,NaN,NaN,0.0053528,3.6,0.2537178,3.6,0.2538805
416,10,0.99,-0.05,0.5,1,2.32634787404084,0.05,1.5,0.2926945,1.47273707350863,NaN,NaN,0.0049009,3.6,0.2575342,3.6,0.2543295
417,10,0.99,-0.05,0.5,2,2.32634787404084,0.01,1.54,0.39655,1.56330012348497,2.61015877425975,NaN,0.099851,3.64,2.2589871,3.64,2.3702287
418,10,0.99,-0.05,0.5,2,2.32634787404084,0.05,1.54,0.4532443,1.56330012348497,2.61015877425975,NaN,0.0966891,3.64,2.2609239,3.64,2.3105002
419,10,0.99,-0.05,0.5,3,2.32634787404084,0.01,0.985,1.3398099,1.51851202746782,2.38475750217831,2.63223230728889,24.9052806,3.64,17.4154159,3.64,17.1472464
420,10,0.99,-0.05,0.5,3,2.32634787404084,0.05,1.563,1.5680345,1.51851202746782,2.38475750217831,2.63223230728889,24.2301452,3.64,17.5008396,3.64,17.2131519
421,1,0.99,-0.05,1,1,2.32634787404084,0.01,1.5,0.2667102,1.4158866913803,3.37233461057415,NaN,0.0073973,1.3,0.1360531,1.3,0.1341421
422,1,0.99,-0.05,1,1,2.32634787404084,0.05,1.5,0.2592276,1.4158866913803,3.37233461057415,NaN,0.0068378,1.4,0.1434273,1.4,0.1414599
423,1,0.99,-0.05,1,2,2.32634787404084,0.01,1.44,0.3614641,1.45752140451004,2.32999697859362,2.99108826557364,0.1294752,1.33,1.2801619,1.31,1.2730888
424,1,0.99,-0.05,1,2,2.32634787404084,0.05,2.35,0.5857927,1.45752140451004,2.32999697859362,2.99108826557364,0.1213481,1.33,1.2851594,1.33,1.2912229
425,1,0.99,-0.05,1,3,2.32634787404084,0.01,1.442,1.9284263,1.50782115362636,2.31618837244793,2.97972303992755,24.4936866,1.309,12.797506,1.309,12.5223531
426,1,0.99,-0.05,1,3,2.32634787404084,0.05,1.442,1.9052923,1.50782115362636,2.31618837244793,2.97972303992755,24.299057,1.332,13.0791978,1.332,12.7825857
427,2,0.99,-0.05,1,1,2.32634787404084,0.01,2.3,0.3900945,1.32278737548355,3.62079502818184,NaN,0.0079202,1.8,0.1634814,1.3,0.1322314
428,2,0.99,-0.05,1,1,2.32634787404084,0.05,2.3,0.370395,1.32278737548355,3.62079502818184,NaN,0.0079845,1.9,0.1648817,1.8,0.1574328
429,2,0.99,-0.05,1,2,2.32634787404084,0.01,2.33,0.5183246,1.46480147351282,2.67609402271281,3.59957803859201,0.0950065,0.97,1.0452453,0.96,1.0110333
430,2,0.99,-0.05,1,2,2.32634787404084,0.05,2.33,0.4993834,1.46480147351282,2.67609402271281,3.59957803859201,0.1030224,1.37,1.2600997,0.97,1.0441275
431,2,0.99,-0.05,1,3,2.32634787404084,0.01,2.327,2.5705047,1.58557528513994,2.40168094468044,3.59752944608909,23.736951,0.965,10.3363118,0.963,10.8687955
432,2,0.99,-0.05,1,3,2.32634787404084,0.05,2.327,2.5819206,1.58557528513994,2.40168094468044,3.59752944608909,23.9546861,0.966,10.4126252,0.965,10.6106272
433,3,0.99,-0.05,1,1,2.32634787404084,0.01,2.3,0.2609838,1.16718555125088,2.9921157463382,NaN,0.0063673,1.5,0.1463755,1.5,0.1507053
434,3,0.99,-0.05,1,1,2.32634787404084,0.05,2.3,0.2548199,1.16718555125088,2.9921157463382,NaN,0.006072,1.8,0.1635101,1.8,0.16167
435,3,0.99,-0.05,1,2,2.32634787404084,0.01,2.32,0.5936678,1.24888817738767,3.00397818608864,NaN,0.1150947,1.52,1.3605851,1.52,1.3600867
436,3,0.99,-0.05,1,2,2.32634787404084,0.05,2.32,0.5939397,1.24888817738767,3.00397818608864,NaN,0.1163218,1.7,1.4583148,1.7,1.4613364
437,3,0.99,-0.05,1,3,2.32634787404084,0.01,2.32,2.2809197,1.40764633621142,2.99230199582871,NaN,25.4855402,1.524,13.5402513,1.522,13.6081146
438,3,0.99,-0.05,1,3,2.32634787404084,0.05,2.32,2.2945526,1.40764633621142,2.99230199582871,NaN,25.463929,1.698,14.2580423,1.524,13.3622771
439,4,0.99,-0.05,1,1,2.32634787404084,0.01,1.5,0.3245724,1.3718556406206,3.05224582043517,NaN,0.0067249,1.4,0.1409477,1.3,0.1387723
440,4,0.99,-0.05,1,1,2.32634787404084,0.05,1.5,0.3218153,1.3718556406206,3.05224582043517,NaN,0.0070553,1.7,0.1542446,1.6,0.148728
441,4,0.99,-0.05,1,2,2.32634787404084,0.01,1.4,0.3840572,1.41182707239638,2.63471087153482,NaN,0.0831884,1.26,1.2142102,1.21,1.1815956
442,4,0.99,-0.05,1,2,2.32634787404084,0.05,2.88,0.8276791,1.41182707239638,2.63471087153482,NaN,0.1132365,1.37,1.2726496,1.29,1.3026853
443,4,0.99,-0.05,1,3,2.32634787404084,0.01,1.608,2.235316,1.47115321738217,2.63864783835135,2.97363067255009,24.9397907,1.208,11.8588065,1.208,11.8787337
444,4,0.99,-0.05,1,3,2.32634787404084,0.05,1.608,2.1790625,1.47115321738217,2.63864783835135,2.97363067255009,24.9052989,1.371,13.1598912,1.257,12.1676222
445,5,0.99,-0.05,1,1,2.32634787404084,0.01,2.3,0.4037686,1.20540041884956,3.10564655469115,NaN,0.0063109,1.8,0.1647907,1.8,0.1653509
446,5,0.99,-0.05,1,1,2.32634787404084,0.05,2.3,0.3995742,1.20540041884956,3.10564655469115,NaN,0.0061587,1.8,0.16196,1.8,0.1615977
447,5,0.99,-0.05,1,2,2.32634787404084,0.01,2.34,0.490391,1.3385846245628,2.35672313254191,3.05064092870849,0.1044619,1.23,1.2130552,1.23,1.2161882
448,5,0.99,-0.05,1,2,2.32634787404084,0.05,2.34,0.4862686,1.3385846245628,2.35672313254191,3.05064092870849,0.0902155,1.77,1.5153758,1.77,1.5046323
449,5,0.99,-0.05,1,3,2.32634787404084,0.01,2.33,2.357033,1.46367275017444,2.34477962168253,3.04997194034796,24.1594563,1.229,12.1133104,1.227,12.569346
450,5,0.99,-0.05,1,3,2.32634787404084,0.05,2.33,2.3574949,1.46367275017444,2.34477962168253,3.04997194034796,23.8053006,1.766,14.8701256,1.229,12.109955
451,6,0.99,-0.05,1,1,2.32634787404084,0.01,2.3,0.5193071,1.34889803302254,2.43081709514563,NaN,0.0169334,1.4,0.1598257,1.3,0.1368113
452,6,0.99,-0.05,1,1,2.32634787404084,0.05,2.3,0.4684109,1.34889803302254,2.43081709514563,NaN,0.0072477,1.4,0.1938239,1.4,0.1354953
453,6,0.99,-0.05,1,2,2.32634787404084,0.01,2.33,0.5437127,1.43513818646216,2.3709400392407,4.24036723409512,0.0926953,1.39,1.4825217,1.32,1.3545241
454,6,0.99,-0.05,1,2,2.32634787404084,0.05,2.33,0.502562,1.43513818646216,2.3709400392407,4.24036723409512,0.1051361,1.41,1.3254237,1.39,1.2903468
455,6,0.99,-0.05,1,3,2.32634787404084,0.01,2.332,2.5078298,1.50759092104194,2.3635236406382,4.24294355422175,25.3881819,1.391,13.2007013,1.322,12.6329845
456,6,0.99,-0.05,1,3,2.32634787404084,0.05,2.332,2.4620035,1.50759092104194,2.3635236406382,4.24294355422175,25.4466745,1.406,12.9121689,1.391,13.1047968
457,7,0.99,-0.05,1,1,2.32634787404084,0.01,2.3,0.4221552,1.22253575002098,3.81346070101203,NaN,0.0061655,1.4,0.1411762,1.4,0.1410158
458,7,0.99,-0.05,1,1,2.32634787404084,0.05,2.3,0.383846,1.22253575002098,3.81346070101203,NaN,0.0061426,1.7,0.1569611,1.4,0.1377728
459,7,0.99,-0.05,1,2,2.32634787404084,0.01,2.32,0.4793662,1.31380177732845,2.4229724112751,3.68668189513441,0.1060139,1.39,1.3117909,0.93,1.006489
460,7,0.99,-0.05,1,2,2.32634787404084,0.05,2.32,0.4716868,1.31380177732845,2.4229724112751,3.68668189513441,0.1158757,1.41,1.3184577,1.4,1.2972406
461,7,0.99,-0.05,1,3,2.32634787404084,0.01,2.347,2.5751074,1.43337526332212,2.37586406769133,3.34407897934313,24.1578251,1.385,12.6936555,1.379,12.6829573
462,7,0.99,-0.05,1,3,2.32634787404084,0.05,2.347,2.5876344,1.43337526332212,2.37586406769133,3.34407897934313,23.9927187,1.409,12.9676317,1.385,13.6529033
463,8,0.99,-0.05,1,1,2.32634787404084,0.01,2.3,0.4170312,1.39082911236306,NaN,NaN,0.0062136,1.7,0.1561324,1.6,0.1502924
464,8,0.99,-0.05,1,1,2.32634787404084,0.05,2.3,0.4047297,1.39082911236306,NaN,NaN,0.0063458,1.7,0.1575931,1.7,0.156302
465,8,0.99,-0.05,1,2,2.32634787404084,0.01,2.32,0.4842325,1.44210554017478,NaN,NaN,0.0985823,1.56,1.3896912,1.56,1.3911292
466,8,0.99,-0.05,1,2,2.32634787404084,0.05,2.32,0.4815499,1.44210554017478,NaN,NaN,0.1117669,1.56,1.4067886,1.56,1.3873295
467,8,0.99,-0.05,1,3,2.32634787404084,0.01,2.325,2.322148,1.49159747640465,3.04828669241197,NaN,25.5601199,1.561,13.9118665,1.561,13.6317227
468,8,0.99,-0.05,1,3,2.32634787404084,0.05,2.325,2.2655369,1.49159747640465,3.04828669241197,NaN,25.449576,1.561,14.153408,1.561,13.6421912
469,9,0.99,-0.05,1,1,2.32634787404084,0.01,2.3,0.344415,1.22015183514317,2.47470735690395,3.43902231554934,0.006815,1.9,0.1683308,1.3,0.1419489
470,9,0.99,-0.05,1,1,2.32634787404084,0.05,2.3,0.3429108,1.22015183514317,2.47470735690395,3.43902231554934,0.0069917,1.9,0.1661107,1.9,0.169664
471,9,0.99,-0.05,1,2,2.32634787404084,0.01,2.33,0.4708843,1.33623865184112,2.39225432080346,2.98350101156701,0.1216286,1.5,1.3615691,1.32,1.2689401
472,9,0.99,-0.05,1,2,2.32634787404084,0.05,2.33,0.4832709,1.33623865184112,2.39225432080346,2.98350101156701,0.1143675,1.84,1.5545144,1.84,1.5670492
473,9,0.99,-0.05,1,3,2.32634787404084,0.01,2.333,2.0515817,1.4967951119095,2.37419768342937,2.98293581366406,24.7294984,1.314,12.6534483,1.314,12.8260165
474,9,0.99,-0.05,1,3,2.32634787404084,0.05,2.333,2.0227442,1.4967951119095,2.37419768342937,2.98293581366406,24.4205321,1.834,15.1938016,1.834,15.3169858
475,10,0.99,-0.05,1,1,2.32634787404084,0.01,1.7,0.2717703,1.41231571645208,2.42896024456803,NaN,0.0057147,1.6,0.1882671,1.3,0.1580598
476,10,0.99,-0.05,1,1,2.32634787404084,0.05,2.3,0.4148584,1.41231571645208,2.42896024456803,NaN,0.0068093,1.6,0.1751444,1.6,0.1527107
477,10,0.99,-0.05,1,2,2.32634787404084,0.01,1.61,0.3596352,1.48955516993607,2.41907610800859,NaN,0.0993285,1.36,1.3214336,1.28,1.3108644
478,10,0.99,-0.05,1,2,2.32634787404084,0.05,2.33,0.5005637,1.48955516993607,2.41907610800859,NaN,0.094756,1.37,1.3419844,1.36,1.3249859
479,10,0.99,-0.05,1,3,2.32634787404084,0.01,1.512,1.9686686,1.54263151840743,2.37385881853209,3.67081015965352,24.7445252,1.305,13.1361421,1.229,12.5191228
480,10,0.99,-0.05,1,3,2.32634787404084,0.05,1.512,1.9409191,1.54263151840743,2.37385881853209,3.67081015965352,25.1080643,1.371,13.2337786,1.354,13.4318027
481,1,0.99,-0.05,2,1,2.32634787404084,0.01,2.3,0.4902214,1.19364833533875,3.54694218092362,NaN,0.0072249,1.4,0.1338826,1.3,0.125086
482,1,0.99,-0.05,2,1,2.32634787404084,0.05,3.6,0.6856861,1.19364833533875,3.54694218092362,NaN,0.0073087,1.5,0.1379742,1.5,0.137032
483,1,0.99,-0.05,2,2,2.32634787404084,0.01,2.33,0.4006712,1.29088686653917,3.57699899845047,4.69471564875804,0.1141042,1.26,1.1859648,1.2,1.1432558
484,1,0.99,-0.05,2,2,2.32634787404084,0.05,3.67,0.5867086,1.29088686653917,3.57699899845047,4.69471564875804,0.1183032,1.49,1.3163082,1.49,1.3086399
485,1,0.99,-0.05,2,3,2.32634787404084,0.01,2.327,2.2876013,1.41331366818167,3.58501641146095,4.6923368962227,25.1973565,1.197,11.3532158,1.197,11.2929625
486,1,0.99,-0.05,2,3,2.32634787404084,0.05,3.672,2.4973748,1.41331366818167,3.58501641146095,4.6923368962227,25.2801167,1.467,12.8968781,1.467,12.8266815
487,2,0.99,-0.05,2,1,2.32634787404084,0.01,2.3,0.2387526,0.831692995818929,2.8637502035896,4.44671026985757,0.0089834,7.6,0.3574899,1.4,0.131846
488,2,0.99,-0.05,2,1,2.32634787404084,0.05,2.3,0.2355312,0.831692995818929,2.8637502035896,4.44671026985757,0.0102736,7.6,0.3553045,7.6,0.3605161
489,2,0.99,-0.05,2,2,2.32634787404084,0.01,2.32,0.453147,0.988980043948206,2.80511665595157,4.42964368100252,0.1039601,1.5,1.3357256,1.39,1.2640058
490,2,0.99,-0.05,2,2,2.32634787404084,0.05,2.32,0.5062143,0.988980043948206,2.80511665595157,4.42964368100252,0.1297485,7.6,2.2860182,1.5,1.3259326
491,2,0.99,-0.05,2,3,2.32634787404084,0.01,2.323,2.422981,1.1368158448745,2.80674534591762,4.4374432083962,24.5345707,1.453,13.1283648,1.392,12.4176623
492,2,0.99,-0.05,2,3,2.32634787404084,0.05,2.323,2.3915855,1.1368158448745,2.80674534591762,4.4374432083962,24.0197073,7.596,16.9683342,1.502,13.1697997
493,3,0.99,-0.05,2,1,2.32634787404084,0.01,2.3,0.2747772,0.901331994599238,3.58076413911801,4.90249765431539,0.0090671,1.8,0.1615814,1.4,0.1312255
494,3,0.99,-0.05,2,1,2.32634787404084,0.05,2.3,0.2644594,0.901331994599238,3.58076413911801,4.90249765431539,0.0091852,8.2,0.3895942,1.8,0.1676331
495,3,0.99,-0.05,2,2,2.32634787404084,0.01,2.32,0.2608058,1.03281235613478,2.41493080113486,3.52686223347639,0.1434882,1.25,1.2075308,1.21,1.2362377
496,3,0.99,-0.05,2,2,2.32634787404084,0.05,2.32,0.2643401,1.03281235613478,2.41493080113486,3.52686223347639,0.1051398,1.79,1.5485034,1.79,1.5439549
497,3,0.99,-0.05,2,3,2.32634787404084,0.01,2.325,2.3956273,1.17430458765926,2.40077927761441,3.50526987374468,24.9442413,1.244,11.9581228,1.213,12.0355166
498,3,0.99,-0.05,2,3,2.32634787404084,0.05,2.325,2.3876005,1.17430458765926,2.40077927761441,3.50526987374468,25.0419901,1.787,15.2518916,1.787,15.1199465
499,4,0.99,-0.05,2,1,2.32634787404084,0.01,2.3,0.3095964,0.98233922294817,2.49126453945469,2.99097028542412,0.010386,5.4,0.3552622,5.4,0.3171645
500,4,0.99,-0.05,2,1,2.32634787404084,0.05,2.3,0.3641586,0.98233922294817,2.49126453945469,2.99097028542412,0.0078818,5.4,0.3556698,5.4,0.3563147
501,4,0.99,-0.05,2,2,2.32634787404084,0.01,2.32,0.3367337,1.09799340254438,2.42797001657968,3.11189119821635,0.1212945,1.87,1.577796,1.91,1.5972556
502,4,0.99,-0.05,2,2,2.32634787404084,0.05,2.32,0.3499866,1.09799340254438,2.42797001657968,3.11189119821635,0.1517596,5.38,2.2171983,5.38,2.2617354
503,4,0.99,-0.05,2,3,2.32634787404084,0.01,2.324,2.2199118,1.25190635245767,2.40275447862166,3.14476699515323,25.567996,1.797,14.8774507,1.797,15.0081538
504,4,0.99,-0.05,2,3,2.32634787404084,0.05,2.324,2.2306549,1.25190635245767,2.40275447862166,3.14476699515323,25.7480375,5.375,17.0005575,5.375,16.7487181
505,5,0.99,-0.05,2,1,2.32634787404084,0.01,2.3,0.2523853,0.953906043214642,2.4982762896418,3.1731408736193,0.008951,1.5,0.1381739,1.5,0.2008912
506,5,0.99,-0.05,2,1,2.32634787404084,0.05,2.3,0.2482634,0.953906043214642,2.4982762896418,3.1731408736193,0.0093373,1.5,0.1391159,1.5,0.1352352
507,5,0.99,-0.05,2,2,2.32634787404084,0.01,2.32,0.426753,1.08132953976318,2.41138888813072,3.26098583903536,0.1282689,1.47,1.4395695,1.47,1.3278959
508,5,0.99,-0.05,2,2,2.32634787404084,0.05,2.32,0.3581415,1.08132953976318,2.41138888813072,3.26098583903536,0.1040628,1.5,1.381709,1.47,1.3197026
509,5,0.99,-0.05,2,3,2.32634787404084,0.01,2.326,2.2536221,1.19342710470132,2.38815208176527,3.29729770131933,25.3003212,1.472,13.5512612,1.468,13.1768088
510,5,0.99,-0.05,2,3,2.32634787404084,0.05,2.326,2.2837046,1.19342710470132,2.38815208176527,3.29729770131933,25.8135219,1.493,13.285163,1.472,13.2969444
511,6,0.99,-0.05,2,1,2.32634787404084,0.01,2.3,0.4868578,1.23556089654399,3.57837255091319,5.24743079051771,0.0085413,1.5,0.1416981,1.4,0.136244
512,6,0.99,-0.05,2,1,2.32634787404084,0.05,2.3,0.4728188,1.23556089654399,3.57837255091319,5.24743079051771,0.0080069,1.5,0.1408637,1.5,0.1408808
513,6,0.99,-0.05,2,2,2.32634787404084,0.01,2.31,0.3845387,1.28656925032093,2.35789010755738,3.72345431938841,0.1205486,1.45,1.3210361,1.45,1.3346213
514,6,0.99,-0.05,2,2,2.32634787404084,0.05,2.31,0.4005774,1.28656925032093,2.35789010755738,3.72345431938841,0.149081,1.45,1.319468,1.45,1.320605
515,6,0.99,-0.05,2,3,2.32634787404084,0.01,2.312,2.3049354,1.38118853668127,2.3398700274545,3.73491370040923,24.3137203,1.437,13.0034716,1.437,13.0753712
516,6,0.99,-0.05,2,3,2.32634787404084,0.05,2.312,2.3859512,1.38118853668127,2.3398700274545,3.73491370040923,24.3700869,1.445,13.0823676,1.445,13.1946652
517,7,0.99,-0.05,2,1,2.32634787404084,0.01,2.3,0.2528038,0.893376163450262,3.20130684376806,4.42506753567368,0.0087113,1.8,0.1592174,1.8,0.1596118
518,7,0.99,-0.05,2,1,2.32634787404084,0.05,3.4,0.4503865,0.893376163450262,3.20130684376806,4.42506753567368,0.0088184,7.6,0.384983,1.8,0.1552032
519,7,0.99,-0.05,2,2,2.32634787404084,0.01,2.32,0.4831519,1.03589072298125,3.18653827393788,4.51622195830004,0.1470493,1.74,1.5069159,1.74,1.561634
520,7,0.99,-0.05,2,2,2.32634787404084,0.05,2.32,0.5192395,1.03589072298125,3.18653827393788,4.51622195830004,0.1381157,1.84,1.553304,1.84,1.5539415
521,7,0.99,-0.05,2,3,2.32634787404084,0.01,2.322,2.5620447,1.18098731936562,3.18186479908379,4.51435519729693,26.0243119,1.736,14.449244,1.725,14.3125637
522,7,0.99,-0.05,2,3,2.32634787404084,0.05,2.322,2.5093573,1.18098731936562,3.18186479908379,4.51435519729693,25.7405512,1.823,15.3377256,1.823,14.7782516
523,8,0.99,-0.05,2,1,2.32634787404084,0.01,2.3,0.3580362,1.11005697401106,2.45215319752566,4.20368301296392,0.0108483,1.5,0.1717904,1.7,0.1478659
524,8,0.99,-0.05,2,1,2.32634787404084,0.05,2.3,0.2917587,1.11005697401106,2.45215319752566,4.20368301296392,0.0093983,1.8,0.1605964,1.7,0.1500281
525,8,0.99,-0.05,2,2,2.32634787404084,0.01,2.32,0.3733615,1.18768721749011,2.40689904336483,3.18078100774789,0.1056315,1.47,1.3206512,1.47,1.3165921
526,8,0.99,-0.05,2,2,2.32634787404084,0.05,2.32,0.3755406,1.18768721749011,2.40689904336483,3.18078100774789,0.1073037,1.73,1.4798268,1.73,1.4713847
527,8,0.99,-0.05,2,3,2.32634787404084,0.01,2.321,2.5767214,1.32880264979472,2.39647300256594,3.16430264341797,24.7188638,1.469,13.4731868,1.469,12.9889765
528,8,0.99,-0.05,2,3,2.32634787404084,0.05,2.321,2.5815764,1.32880264979472,2.39647300256594,3.16430264341797,24.4737969,1.726,14.3461828,1.727,14.7231891
529,9,0.99,-0.05,2,1,2.32634787404084,0.01,2.3,0.2445247,0.805622671325434,3.61634675151095,4.38947415771687,0.0079549,6.9,0.3663014,6.9,0.3581622
530,9,0.99,-0.05,2,1,2.32634787404084,0.05,2.3,0.2339691,0.805622671325434,3.61634675151095,4.38947415771687,0.0081066,6.9,0.3582281,6.9,0.3692662
531,9,0.99,-0.05,2,2,2.32634787404084,0.01,2.32,0.2412506,0.947978070654486,2.45473746771096,2.91610982283396,0.1270347,1.87,1.5437197,1.85,1.5254936
532,9,0.99,-0.05,2,2,2.32634787404084,0.05,2.32,0.2619102,0.947978070654486,2.45473746771096,2.91610982283396,0.1191278,6.89,2.2570078,6.89,2.2768685
533,9,0.99,-0.05,2,3,2.32634787404084,0.01,2.324,2.3143902,1.11522992747767,2.42527305807767,2.89158263420299,25.4860041,1.843,14.6529807,1.843,14.7271818
534,9,0.99,-0.05,2,3,2.32634787404084,0.05,2.324,2.3184625,1.11522992747767,2.42527305807767,2.89158263420299,25.4732481,6.89,16.5780494,6.89,16.6913272
535,10,0.99,-0.05,2,1,2.32634787404084,0.01,2.3,0.2658292,0.930311705373935,2.99896554144519,4.85783849031763,0.0087909,1.6,0.141936,1.6,0.1429554
536,10,0.99,-0.05,2,1,2.32634787404084,0.05,2.3,0.2665958,0.930311705373935,2.99896554144519,4.85783849031763,0.009949,1.6,0.1430105,1.6,0.1467038
537,10,0.99,-0.05,2,2,2.32634787404084,0.01,2.32,0.3704649,1.07751643153409,2.44544983030371,2.92471231469674,0.1119936,1.53,1.3785567,1.53,1.3604825
538,10,0.99,-0.05,2,2,2.32634787404084,0.05,2.32,0.3710741,1.07751643153409,2.44544983030371,2.92471231469674,0.1116335,1.56,1.3805566,1.53,1.3559363
539,10,0.99,-0.05,2,3,2.32634787404084,0.01,2.329,2.622994,1.20896728697437,2.43053476188758,2.91839585007363,25.0341696,1.535,13.6692901,1.535,13.8846927
540,10,0.99,-0.05,2,3,2.32634787404084,0.05,2.329,2.6128287,1.20896728697437,2.43053476188758,2.91839585007363,24.8644611,1.557,13.7858291,1.557,13.6504391
541,1,0.99,0,0.5,1,2.32634787404084,0.01,1.7,0.2010969,1.88258476220592,NaN,NaN,0.0051763,3.5,0.2536937,3.5,0.2547851
542,1,0.99,0,0.5,1,2.32634787404084,0.05,1.7,0.2125829,1.88258476220592,NaN,NaN,0.0057557,3.5,0.248179,3.5,0.2522394
543,1,0.99,0,0.5,2,2.32634787404084,0.01,1.74,0.3640563,1.70366041102868,2.0120090311929,2.54590519624778,0.0725182,1.72,1.7893637,1.72,1.7719906
544,1,0.99,0,0.5,2,2.32634787404084,0.05,1.74,0.4357497,1.70366041102868,2.0120090311929,2.54590519624778,0.0809583,1.72,1.8285266,1.72,1.6657642
545,1,0.99,0,0.5,3,2.32634787404084,0.01,1.438,1.8652276,1.7245517706084,1.99029559066471,2.51884396403314,24.4442453,1.682,16.1409717,1.682,16.0047474
546,1,0.99,0,0.5,3,2.32634787404084,0.05,1.438,1.9459929,1.7245517706084,1.99029559066471,2.51884396403314,24.9749742,1.682,15.9503418,1.682,16.1298477
547,2,0.99,0,0.5,1,2.32634787404084,0.01,1.5,0.218002,1.51892016088523,NaN,NaN,0.0056264,3.8,0.2608959,3.8,0.2620211
548,2,0.99,0,0.5,1,2.32634787404084,0.05,1.5,0.2170169,1.51892016088523,NaN,NaN,0.0052539,3.8,0.2600081,3.8,0.25761
549,2,0.99,0,0.5,2,2.32634787404084,0.01,1.54,0.3708925,1.52507483657292,2.47839952654724,3.34561299099199,0.1043092,1.5,1.4414601,1.5,1.4535479
550,2,0.99,0,0.5,2,2.32634787404084,0.05,1.54,0.365103,1.52507483657292,2.47839952654724,3.34561299099199,0.1188459,1.54,1.4858113,1.54,1.5185741
551,2,0.99,0,0.5,3,2.32634787404084,0.01,1.542,2.0509652,1.55460661074907,2.44864974330408,3.25107913896538,24.6024025,1.497,14.0995454,1.497,14.3704307
552,2,0.99,0,0.5,3,2.32634787404084,0.05,1.542,1.9167472,1.55460661074907,2.44864974330408,3.25107913896538,24.9622307,1.549,14.3901422,1.549,14.5871672
553,3,0.99,0,0.5,1,2.32634787404084,0.01,1.5,0.2161179,1.42334371697233,2.46429272306633,NaN,0.0060761,3.6,0.2607864,3.6,0.258543
554,3,0.99,0,0.5,1,2.32634787404084,0.05,1.5,0.2130522,1.42334371697233,2.46429272306633,NaN,0.006297,3.6,0.260548,3.6,0.2913118
555,3,0.99,0,0.5,2,2.32634787404084,0.01,1,0.2854007,1.46328654675725,2.48860645933415,NaN,0.1193153,3.61,2.382864,3.61,2.3713072
556,3,0.99,0,0.5,2,2.32634787404084,0.05,1.62,0.3756767,1.46328654675725,2.48860645933415,NaN,0.1082677,3.61,2.2573317,3.61,2.2860211
557,3,0.99,0,0.5,3,2.32634787404084,0.01,1.629,1.9204162,1.53999264999844,2.52045812590832,NaN,25.2793248,1.918,16.3847747,1.918,16.8795882
558,3,0.99,0,0.5,3,2.32634787404084,0.05,1.629,1.8951298,1.53999264999844,2.52045812590832,NaN,24.8747292,1.918,16.4740894,1.918,16.4683027
559,4,0.99,0,0.5,1,2.32634787404084,0.01,1.1,0.0973317,2.2063417453026,NaN,NaN,0.005077,3.4,0.2333294,3.4,0.2462381
560,4,0.99,0,0.5,1,2.32634787404084,0.05,1.1,0.0865981,2.2063417453026,NaN,NaN,0.0046572,3.4,0.2397425,3.4,0.2436467
561,4,0.99,0,0.5,2,2.32634787404084,0.01,1.78,0.3940103,2.49200613316203,NaN,NaN,0.1126957,1.71,1.7711578,1.71,1.7179756
562,4,0.99,0,0.5,2,2.32634787404084,0.05,2.58,1.0615528,2.49200613316203,NaN,NaN,0.0764812,1.71,1.5746855,1.71,1.6036158
563,4,0.99,0,0.5,3,2.32634787404084,0.01,1.422,1.9219802,1.36017965899325,2.09652009003022,2.30078551459717,24.2741329,1.698,15.2713498,1.698,15.2521638
564,4,0.99,0,0.5,3,2.32634787404084,0.05,1.422,1.9080227,1.36017965899325,2.09652009003022,2.30078551459717,24.2931491,1.698,15.2705967,1.698,15.3225012
565,5,0.99,0,0.5,1,2.32634787404084,0.01,1,0.1198955,1.33719816503057,NaN,NaN,0.0052736,3.8,0.2743181,3.8,0.2702367
566,5,0.99,0,0.5,1,2.32634787404084,0.05,1.6,0.2214122,1.33719816503057,NaN,NaN,0.0053524,3.8,0.270989,3.8,0.2734081
567,5,0.99,0,0.5,2,2.32634787404084,0.01,1.74,0.362816,1.47680836318528,2.27713232977823,2.76894815598149,0.0749885,1.71,1.6333553,1.71,1.6135377
568,5,0.99,0,0.5,2,2.32634787404084,0.05,1.74,0.362307,1.47680836318528,2.27713232977823,2.76894815598149,0.0917026,1.71,1.6221808,1.71,1.6255788
569,5,0.99,0,0.5,3,2.32634787404084,0.01,1.744,1.8394113,1.58932934960301,2.26016509327124,2.75080161383843,25.1435434,1.635,15.3971474,1.635,15.4187744
570,5,0.99,0,0.5,3,2.32634787404084,0.05,1.744,1.8184448,1.58932934960301,2.26016509327124,2.75080161383843,24.9234791,1.635,15.8373836,1.635,15.4176308
571,6,0.99,0,0.5,1,2.32634787404084,0.01,1.7,0.2326165,2.34916022906458,NaN,NaN,0.0055084,3.6,0.2565731,3.6,0.2563849
572,6,0.99,0,0.5,1,2.32634787404084,0.05,1.7,0.2168722,2.34916022906458,NaN,NaN,0.0057576,3.6,0.2511185,3.6,0.2707423
573,6,0.99,0,0.5,2,2.32634787404084,0.01,1.73,0.3687728,2.35027125385859,NaN,NaN,0.069771,1.59,1.5639052,1.59,1.5670409
574,6,0.99,0,0.5,2,2.32634787404084,0.05,1.73,0.3463643,2.35027125385859,NaN,NaN,0.0874278,1.59,1.5810063,1.59,1.5627708
575,6,0.99,0,0.5,3,2.32634787404084,0.01,1.731,1.7434849,1.79502665149603,2.32319190898236,NaN,23.8619148,1.562,15.6781289,1.561,15.1978429
576,6,0.99,0,0.5,3,2.32634787404084,0.05,1.731,1.7638792,1.79502665149603,2.32319190898236,NaN,23.8035136,1.562,15.6087184,1.562,15.3604256
577,7,0.99,0,0.5,1,2.32634787404084,0.01,1.5,0.2368054,1.53434901792048,NaN,NaN,0.006355,3.8,0.2514625,3.8,0.2526952
578,7,0.99,0,0.5,1,2.32634787404084,0.05,1.5,0.2219217,1.53434901792048,NaN,NaN,0.0056807,3.8,0.251238,3.8,0.2522885
579,7,0.99,0,0.5,2,2.32634787404084,0.01,1.53,0.3546581,1.5593185907387,1.78442365363801,2.69143471909642,0.0869387,1.52,1.4447928,1.52,1.4576009
580,7,0.99,0,0.5,2,2.32634787404084,0.05,1.53,0.3613365,1.5593185907387,1.78442365363801,2.69143471909642,0.0965826,1.52,1.4588611,1.52,1.4379087
581,7,0.99,0,0.5,3,2.32634787404084,0.01,1.394,1.8733206,1.54682407290489,1.8539688266095,2.33907215971203,24.2945003,1.518,14.1699398,1.518,14.290124
582,7,0.99,0,0.5,3,2.32634787404084,0.05,1.394,1.8948852,1.54682407290489,1.8539688266095,2.33907215971203,24.0522206,1.518,14.2284454,1.518,14.422328
583,8,0.99,0,0.5,1,2.32634787404084,0.01,1.6,0.22094,1.52997476916794,NaN,NaN,0.0069233,1.8,0.2086571,1.8,0.1664916
584,8,0.99,0,0.5,1,2.32634787404084,0.05,1.6,0.1859079,1.52997476916794,NaN,NaN,0.0051558,1.8,0.1784869,1.8,0.2165419
585,8,0.99,0,0.5,2,2.32634787404084,0.01,1.6,0.5506116,1.62768306447863,3.04649443000436,NaN,0.0811687,1.47,1.4103096,1.47,1.4321698
586,8,0.99,0,0.5,2,2.32634787404084,0.05,1.6,0.4786829,1.62768306447863,3.04649443000436,NaN,0.0874228,1.69,1.5502601,1.65,1.5243401
587,8,0.99,0,0.5,3,2.32634787404084,0.01,1.47,2.0268338,1.66456196888455,2.99251947982792,NaN,24.9774837,1.467,14.3770759,1.467,14.3461669
588,8,0.99,0,0.5,3,2.32634787404084,0.05,1.47,2.0729856,1.66456196888455,2.99251947982792,NaN,25.2492117,1.693,14.9434904,1.651,15.1066426
589,9,0.99,0,0.5,1,2.32634787404084,0.01,1.1,0.1236967,1.47793628841967,NaN,NaN,0.0062115,3.6,0.2540384,3.6,0.2595352
590,9,0.99,0,0.5,1,2.32634787404084,0.05,1.7,0.2450391,1.47793628841967,NaN,NaN,0.0063053,3.6,0.2693568,3.6,0.2542808
591,9,0.99,0,0.5,2,2.32634787404084,0.01,1.59,0.3911531,1.58006655571078,NaN,NaN,0.0791769,1.76,1.6395979,1.76,1.6167614
592,9,0.99,0,0.5,2,2.32634787404084,0.05,1.59,0.3571519,1.58006655571078,NaN,NaN,0.0768567,1.76,1.7205716,1.76,1.7595767
593,9,0.99,0,0.5,3,2.32634787404084,0.01,1.589,1.9925786,1.67907936741376,NaN,NaN,25.1063171,1.728,15.7249775,1.728,16.0364755
594,9,0.99,0,0.5,3,2.32634787404084,0.05,1.589,1.8509627,1.67907936741376,NaN,NaN,24.9405539,1.728,15.6712868,1.728,16.0000328
595,10,0.99,0,0.5,1,2.32634787404084,0.01,1.6,0.202592,1.97098272065205,NaN,NaN,0.0064753,2.5,0.2232247,2.5,0.2076921
596,10,0.99,0,0.5,1,2.32634787404084,0.05,1.6,0.1889932,1.97098272065205,NaN,NaN,0.0047738,2.5,0.2105144,2.5,0.2096565
597,10,0.99,0,0.5,2,2.32634787404084,0.01,1.65,0.4647226,1.92215481752267,2.80993593186259,NaN,0.0931709,1.61,1.5940678,1.61,1.5417903
598,10,0.99,0,0.5,2,2.32634787404084,0.05,1.65,0.4690232,1.92215481752267,2.80993593186259,NaN,0.0746323,1.61,1.5704296,1.61,1.6083152
599,10,0.99,0,0.5,3,2.32634787404084,0.01,1.618,1.9619746,1.89624678131064,2.7953430791997,NaN,25.4695016,1.587,15.3727075,1.587,15.7380856
600,10,0.99,0,0.5,3,2.32634787404084,0.05,1.618,1.9148883,1.89624678131064,2.7953430791997,NaN,25.0009718,1.587,15.2367557,1.587,15.3308163
601,1,0.99,0,1,1,2.32634787404084,0.01,2.3,0.3668945,1.17862894049872,3.04465030534414,NaN,0.0168614,1.6,0.2106155,1.6,0.1529459
602,1,0.99,0,1,1,2.32634787404084,0.05,3.7,0.6151977,1.17862894049872,3.04465030534414,NaN,0.0066147,1.9,0.1643659,1.9,0.1652297
603,1,0.99,0,1,2,2.32634787404084,0.01,2.39,0.5864781,1.26041405417386,3.01205435593956,3.67099098066025,0.1073507,1.59,1.5331471,1.01,1.0717971
604,1,0.99,0,1,2,2.32634787404084,0.05,2.39,0.5897238,1.26041405417386,3.01205435593956,3.67099098066025,0.0896375,1.88,1.5379839,1.88,1.6139055
605,1,0.99,0,1,3,2.32634787404084,0.01,2.397,2.6001752,1.34443815769395,3.01715179424783,3.67619995436398,24.8450734,1.494,13.2529743,1.014,10.6244002
606,1,0.99,0,1,3,2.32634787404084,0.05,2.397,2.5825901,1.34443815769395,3.01715179424783,3.67619995436398,24.8204499,1.876,15.1204471,1.617,13.8603279
607,2,0.99,0,1,1,2.32634787404084,0.01,2.3,0.3832259,1.19195497034067,3.38784303800468,NaN,0.0068521,1.5,0.14395,1.3,0.1325683
608,2,0.99,0,1,1,2.32634787404084,0.05,2.3,0.3693186,1.19195497034067,3.38784303800468,NaN,0.0082641,1.7,0.1664419,1.5,0.1487023
609,2,0.99,0,1,2,2.32634787404084,0.01,2.3,0.4854245,1.33672547094392,2.4186736906991,3.37584894031202,0.1064364,1.26,1.1973921,0.95,1.0011894
610,2,0.99,0,1,2,2.32634787404084,0.05,2.3,0.4975846,1.33672547094392,2.4186736906991,3.37584894031202,0.1107149,1.27,1.2007365,1.26,1.1898967
611,2,0.99,0,1,3,2.32634787404084,0.01,2.337,2.4814394,1.43624221280686,2.39936438862138,3.34594012331177,24.0434378,1.254,12.241165,1.237,11.6792645
612,2,0.99,0,1,3,2.32634787404084,0.05,2.337,2.4772989,1.43624221280686,2.39936438862138,3.34594012331177,24.2600714,1.271,11.9108234,1.254,12.2244983
613,3,0.99,0,1,1,2.32634787404084,0.01,2.3,0.4076061,1.35895374563238,2.3962823701299,NaN,0.0080636,1.5,0.1492013,1.5,0.1459017
614,3,0.99,0,1,1,2.32634787404084,0.05,2.3,0.4026477,1.35895374563238,2.3962823701299,NaN,0.0070824,1.5,0.1478483,1.5,0.1434186
615,3,0.99,0,1,2,2.32634787404084,0.01,2.32,0.4988527,1.4508972189965,2.34831180164771,3.33773521213971,0.1228629,1.43,1.3384542,1.43,1.3628296
616,3,0.99,0,1,2,2.32634787404084,0.05,2.32,0.5016893,1.4508972189965,2.34831180164771,3.33773521213971,0.1171303,1.49,1.3636258,1.43,1.3376104
617,3,0.99,0,1,3,2.32634787404084,0.01,2.323,2.7282802,1.53707463722794,2.33921147536523,3.37879602477019,24.9387693,1.431,13.3536485,1.431,13.6089952
618,3,0.99,0,1,3,2.32634787404084,0.05,2.323,2.7469597,1.53707463722794,2.33921147536523,3.37879602477019,25.0253571,1.475,13.4127212,1.431,13.5401327
619,4,0.99,0,1,1,2.32634787404084,0.01,2.3,0.3444867,1.34624602607327,2.65415260773444,NaN,0.0077103,1.4,0.1428389,1.4,0.1384539
620,4,0.99,0,1,1,2.32634787404084,0.05,2.3,0.3453706,1.34624602607327,2.65415260773444,NaN,0.0065899,1.5,0.1469067,1.5,0.1462779
621,4,0.99,0,1,2,2.32634787404084,0.01,2.32,0.510223,1.46408973754693,2.6433187482664,3.8115965484334,0.1124448,0.95,1.0253499,0.93,1.016971
622,4,0.99,0,1,2,2.32634787404084,0.05,2.32,0.4960713,1.46408973754693,2.6433187482664,3.8115965484334,0.1171778,1.45,1.3319765,0.93,1.1105285
623,4,0.99,0,1,3,2.32634787404084,0.01,2.326,2.5434367,1.54242613205948,2.6493984187763,3.79307897871472,23.7527067,0.949,10.2830797,0.931,10.3149111
624,4,0.99,0,1,3,2.32634787404084,0.05,2.326,2.5797857,1.54242613205948,2.6493984187763,3.79307897871472,24.1340056,1.444,13.2334259,0.949,10.270148
625,5,0.99,0,1,1,2.32634787404084,0.01,2.4,0.3048197,1.20471779623279,2.55515991506693,NaN,0.0062955,1.6,0.1504145,1.6,0.1503116
626,5,0.99,0,1,1,2.32634787404084,0.05,2.4,0.3296466,1.20471779623279,2.55515991506693,NaN,0.0068524,1.9,0.1633703,1.6,0.1536977
627,5,0.99,0,1,2,2.32634787404084,0.01,2.43,0.6154846,1.307005502422,2.43749759249776,2.73798485455291,0.099265,1.56,1.405724,1.56,1.3887182
628,5,0.99,0,1,2,2.32634787404084,0.05,2.43,0.6173859,1.307005502422,2.43749759249776,2.73798485455291,0.1266379,1.56,1.3973741,1.56,1.4034148
629,5,0.99,0,1,3,2.32634787404084,0.01,2.426,2.5576169,1.42306858018587,2.41923004825085,2.71453704453708,24.6895699,1.555,14.1275631,1.555,13.685182
630,5,0.99,0,1,3,2.32634787404084,0.05,2.426,2.5627327,1.42306858018587,2.41923004825085,2.71453704453708,24.6729564,1.562,14.3441798,1.562,13.7004427
631,6,0.99,0,1,1,2.32634787404084,0.01,2.3,0.3860821,1.44261533543642,2.64016113771903,3.70180878921707,0.0072549,1.3,0.131835,1.3,0.1334855
632,6,0.99,0,1,1,2.32634787404084,0.05,2.3,0.4109678,1.44261533543642,2.64016113771903,3.70180878921707,0.0082266,1.6,0.1489368,1.6,0.1471555
633,6,0.99,0,1,2,2.32634787404084,0.01,2.32,0.5159634,1.49711295902995,2.41016905394527,3.65402013878377,0.1061912,1.32,1.2285774,0.95,1.0190615
634,6,0.99,0,1,2,2.32634787404084,0.05,2.32,0.5435383,1.49711295902995,2.41016905394527,3.65402013878377,0.1301886,1.54,1.3432591,1.54,1.3310996
635,6,0.99,0,1,3,2.32634787404084,0.01,2.328,2.3236894,1.56883992509689,2.39000984681703,2.67777666884548,24.9329669,1.289,11.9290432,0.953,10.2803891
636,6,0.99,0,1,3,2.32634787404084,0.05,2.328,2.3383652,1.56883992509689,2.39000984681703,2.67777666884548,24.5696126,1.539,13.3889169,1.319,12.1014399
637,7,0.99,0,1,1,2.32634787404084,0.01,1.5,0.3430361,1.50696647544675,2.44043493682138,NaN,0.0084016,1.6,0.1550971,1.3,0.1283057
638,7,0.99,0,1,1,2.32634787404084,0.05,1.5,0.3212163,1.50696647544675,2.44043493682138,NaN,0.0071884,1.7,0.1534129,1.7,0.150427
639,7,0.99,0,1,2,2.32634787404084,0.01,1.5,0.3628409,1.52461238136202,2.36693413981254,3.37766297499783,0.1053389,1.3,1.2236751,1.02,1.1126712
640,7,0.99,0,1,2,2.32634787404084,0.05,1.5,0.4268609,1.52461238136202,2.36693413981254,3.37766297499783,0.1159388,1.3,1.312155,1.3,1.3166815
641,7,0.99,0,1,3,2.32634787404084,0.01,1.381,2.0502492,1.56641722927499,2.34838224992437,3.37474890871464,25.0356227,1.288,12.0267686,1.02,10.8661046
642,7,0.99,0,1,3,2.32634787404084,0.05,1.629,2.1370678,1.56641722927499,2.34838224992437,3.37474890871464,25.2203603,1.308,12.2071891,1.294,12.0763747
643,8,0.99,0,1,1,2.32634787404084,0.01,2.3,0.3553039,1.07068317073467,2.54828904471113,NaN,0.0069774,1.6,0.1551384,1.5,0.1499648
644,8,0.99,0,1,1,2.32634787404084,0.05,2.3,0.3496853,1.07068317073467,2.54828904471113,NaN,0.0069218,1.9,0.1741532,1.6,0.1556063
645,8,0.99,0,1,2,2.32634787404084,0.01,2.33,0.5881732,1.2027881656723,2.42253053271116,2.7400771635869,0.0983804,1.53,1.3918088,1.45,1.333977
646,8,0.99,0,1,2,2.32634787404084,0.05,2.33,0.6200102,1.2027881656723,2.42253053271116,2.7400771635869,0.1247679,1.54,1.4292355,1.53,1.5264359
647,8,0.99,0,1,3,2.32634787404084,0.01,2.333,2.2435963,1.36248532464457,2.40187384710185,2.74972401072685,23.4024925,1.455,13.2720622,1.448,13.2052545
648,8,0.99,0,1,3,2.32634787404084,0.05,2.333,2.1467693,1.36248532464457,2.40187384710185,2.74972401072685,23.118541,1.536,14.1966264,1.532,13.5783092
649,9,0.99,0,1,1,2.32634787404084,0.01,1.5,0.3327988,1.36501381568374,2.84563957180458,NaN,0.0067774,1.2,0.1291611,1.2,0.1310793
650,9,0.99,0,1,1,2.32634787404084,0.05,1.5,0.3169386,1.36501381568374,2.84563957180458,NaN,0.0074889,1.5,0.1474101,1.5,0.151313
651,9,0.99,0,1,2,2.32634787404084,0.01,1.51,0.3859013,1.43970107442579,2.36915262374666,2.80725011268488,0.0947946,1.2,1.1729517,1.19,1.1585273
652,9,0.99,0,1,2,2.32634787404084,0.05,1.51,0.3862816,1.43970107442579,2.36915262374666,2.80725011268488,0.1059716,1.21,1.170845,1.2,1.1707173
653,9,0.99,0,1,3,2.32634787404084,0.01,1.301,1.9058422,1.50830565227388,2.36060016550824,2.78935495405502,24.697977,1.194,11.9771657,1.184,11.7534082
654,9,0.99,0,1,3,2.32634787404084,0.05,1.782,2.3182907,1.50830565227388,2.36060016550824,2.78935495405502,24.8360077,1.2,12.0890747,1.194,11.7469412
655,10,0.99,0,1,1,2.32634787404084,0.01,2.3,0.2715316,1.04570849367657,2.42402247415864,2.97435548211394,0.0066514,1.6,0.1498971,1.6,0.1478522
656,10,0.99,0,1,1,2.32634787404084,0.05,2.3,0.2709884,1.04570849367657,2.42402247415864,2.97435548211394,0.0069307,2,0.1670711,1.9,0.1611041
657,10,0.99,0,1,2,2.32634787404084,0.01,2.28,0.4909775,1.16350245138183,2.3512202117398,3.05047608619664,0.1398214,1.59,1.5520902,1.59,1.4949978
658,10,0.99,0,1,2,2.32634787404084,0.05,2.28,0.4373659,1.16350245138183,2.3512202117398,3.05047608619664,0.1299102,1.66,1.4535156,1.61,1.3633038
659,10,0.99,0,1,3,2.32634787404084,0.01,2.285,2.4756549,1.29118685496199,2.33866024906688,2.76473444486389,25.8376885,1.592,13.4831299,1.592,13.4576951
660,10,0.99,0,1,3,2.32634787404084,0.05,2.285,2.4935348,1.29118685496199,2.33866024906688,2.76473444486389,26.124367,1.604,13.3809909,1.604,13.8058466
661,1,0.99,0,2,1,2.32634787404084,0.01,2.3,0.3636379,1.12978624084523,2.524218814424,3.31635938911956,0.0094342,1.7,0.1543361,1.4,0.1331451
662,1,0.99,0,2,1,2.32634787404084,0.05,2.3,0.3514432,1.12978624084523,2.524218814424,3.31635938911956,0.0129094,1.8,0.1597138,1.8,0.1551689
663,1,0.99,0,2,2,2.32634787404084,0.01,2.33,0.3649911,1.25173682933498,2.43561907220751,3.25423017794257,0.1173799,1.37,1.2917886,1.17,1.1462163
664,1,0.99,0,2,2,2.32634787404084,0.05,2.33,0.3816345,1.25173682933498,2.43561907220751,3.25423017794257,0.1318633,1.76,1.5248587,1.72,1.5115096
665,1,0.99,0,2,3,2.32634787404084,0.01,2.326,2.0928047,1.37546654325443,2.41515598085483,3.25759045982416,24.3977102,1.168,11.4847888,1.163,11.4128692
666,1,0.99,0,2,3,2.32634787404084,0.05,2.326,2.0974229,1.37546654325443,2.41515598085483,3.25759045982416,24.5913219,1.755,15.2930567,1.722,14.4957158
667,2,0.99,0,2,1,2.32634787404084,0.01,2.3,0.3512817,1.10082493850721,3.79777074524507,NaN,0.0094905,1.4,0.1347411,1.4,0.1314337
668,2,0.99,0,2,1,2.32634787404084,0.05,2.3,0.3483768,1.10082493850721,3.79777074524507,NaN,0.0092124,1.7,0.1518062,1.4,0.1313272
669,2,0.99,0,2,2,2.32634787404084,0.01,2.29,0.3972339,1.20731720863196,2.3972083060306,3.86739056382624,0.1209906,1.41,1.3015212,1.33,1.2453338
670,2,0.99,0,2,2,2.32634787404084,0.05,2.29,0.3912028,1.20731720863196,2.3972083060306,3.86739056382624,0.110303,1.41,1.3126961,1.41,1.3027102
671,2,0.99,0,2,3,2.32634787404084,0.01,2.318,2.4817405,1.30090471617085,2.37623299384591,3.86782936959478,24.8493269,1.406,13.0528261,1.372,12.5992138
672,2,0.99,0,2,3,2.32634787404084,0.05,2.318,2.4637502,1.30090471617085,2.37623299384591,3.86782936959478,24.842643,1.406,13.0406911,1.406,12.8677368
673,3,0.99,0,2,1,2.32634787404084,0.01,2.3,0.5078151,1.31382289629343,2.42894833140819,4.37831003650779,0.0083782,1.3,0.127631,1.2,0.1245971
674,3,0.99,0,2,1,2.32634787404084,0.05,2.3,0.5075953,1.31382289629343,2.42894833140819,4.37831003650779,0.0091291,1.4,0.1361674,1.4,0.1319471
675,3,0.99,0,2,2,2.32634787404084,0.01,2.32,0.4035177,1.41493286627479,2.38107590280675,4.37637800214181,0.121506,1.16,1.123771,1.16,1.1201572
676,3,0.99,0,2,2,2.32634787404084,0.05,2.32,0.3990353,1.41493286627479,2.38107590280675,4.37637800214181,0.1062397,1.16,1.1540544,1.4,1.2875905
677,3,0.99,0,2,3,2.32634787404084,0.01,2.325,2.6419313,1.49456714590024,2.36840063650576,4.3896188517831,24.5258378,1.162,11.4325098,1.162,11.5624239
678,3,0.99,0,2,3,2.32634787404084,0.05,2.325,2.6529542,1.49456714590024,2.36840063650576,4.3896188517831,24.0739251,1.163,11.2992886,1.175,11.5375036
679,4,0.99,0,2,1,2.32634787404084,0.01,2.3,0.2552949,0.99128095391517,2.49427659113083,3.92230832773225,0.0102294,1.7,0.1525738,1.7,0.1526556
680,4,0.99,0,2,1,2.32634787404084,0.05,2.3,0.2501582,0.99128095391517,2.49427659113083,3.92230832773225,0.0090935,1.7,0.1532259,1.7,0.1503136
681,4,0.99,0,2,2,2.32634787404084,0.01,2.37,0.4346571,1.08416088524111,2.46336281981739,3.83184907882601,0.1404438,1.66,1.4947614,1.66,1.4250379
682,4,0.99,0,2,2,2.32634787404084,0.05,2.37,0.4164663,1.08416088524111,2.46336281981739,3.83184907882601,0.1278215,1.68,1.4361796,1.67,1.4517563
683,4,0.99,0,2,3,2.32634787404084,0.01,2.374,2.36142,1.22297743029027,2.4555689153028,3.83517379977867,25.3692409,1.66,13.9096031,1.66,14.0506961
684,4,0.99,0,2,3,2.32634787404084,0.05,2.374,2.2975102,1.22297743029027,2.4555689153028,3.83517379977867,24.8686697,1.667,13.9672376,1.667,13.8814015
685,5,0.99,0,2,1,2.32634787404084,0.01,2.3,0.4717504,1.12894557835111,2.9808136182663,NaN,0.008335,1.8,0.1540626,1.7,0.1434152
686,5,0.99,0,2,1,2.32634787404084,0.05,3.5,0.6668129,1.12894557835111,2.9808136182663,NaN,0.0082755,1.8,0.1560161,1.8,0.149171
687,5,0.99,0,2,2,2.32634787404084,0.01,2.33,0.3682418,1.26022001238767,3.04328046747682,3.91965484263548,0.1246491,1.73,1.5608873,1.16,1.2245447
688,5,0.99,0,2,2,2.32634787404084,0.05,2.33,0.3807825,1.26022001238767,3.04328046747682,3.91965484263548,0.1140726,1.78,1.5923183,1.77,1.5162887
689,5,0.99,0,2,3,2.32634787404084,0.01,2.328,2.447804,1.38735982467259,3.02479902802024,3.93789373246911,25.2837434,1.725,14.3295044,0.915,9.5414294
690,5,0.99,0,2,3,2.32634787404084,0.05,2.328,2.411523,1.38735982467259,3.02479902802024,3.93789373246911,24.9100004,1.776,15.113855,1.731,14.4941049
691,6,0.99,0,2,1,2.32634787404084,0.01,2.3,0.3027597,0.956080215605657,2.4989912333413,3.23478098613106,0.0080455,2,0.1727893,1.9,0.1605309
692,6,0.99,0,2,1,2.32634787404084,0.05,2.3,0.2953248,0.956080215605657,2.4989912333413,3.23478098613106,0.008343,2,0.1701963,2,0.165323
693,6,0.99,0,2,2,2.32634787404084,0.01,2.32,0.4319741,1.07674135708496,2.42910421803381,3.27543977348742,0.1054597,1.93,1.6156039,1.23,1.1809703
694,6,0.99,0,2,2,2.32634787404084,0.05,2.32,0.4081894,1.07674135708496,2.42910421803381,3.27543977348742,0.1225093,1.95,1.6801067,1.95,1.6001885
695,6,0.99,0,2,3,2.32634787404084,0.01,2.321,2.4189411,1.23214454586082,2.41143167141392,3.28766415656817,25.346756,1.913,15.7496075,1.231,11.6280773
696,6,0.99,0,2,3,2.32634787404084,0.05,2.321,2.4150515,1.23214454586082,2.41143167141392,3.28766415656817,25.5498315,1.945,15.7631316,1.945,15.3694016
697,7,0.99,0,2,1,2.32634787404084,0.01,2.4,0.4698549,1.20253088107514,2.50621984179857,3.91773012002713,0.0080217,1.5,0.1409844,1.2,0.1237147
698,7,0.99,0,2,1,2.32634787404084,0.05,2.4,0.4939177,1.20253088107514,2.50621984179857,3.91773012002713,0.0085463,1.7,0.1537142,1.7,0.1492974
699,7,0.99,0,2,2,2.32634787404084,0.01,2.32,0.3480236,1.29678602913385,2.42971004533253,3.83049888031376,0.1254457,1.23,1.1736791,1.21,1.1555245
700,7,0.99,0,2,2,2.32634787404084,0.05,2.32,0.3555978,1.29678602913385,2.42971004533253,3.83049888031376,0.1168686,1.47,1.3304708,1.47,1.3263871
701,7,0.99,0,2,3,2.32634787404084,0.01,2.323,2.1421287,1.43821810865379,2.41885129516512,3.8506532018011,25.4571409,1.225,11.7590511,0.882,9.9257246
702,7,0.99,0,2,3,2.32634787404084,0.05,2.323,2.1258874,1.43821810865379,2.41885129516512,3.8506532018011,25.4331109,1.47,13.3692113,1.468,13.0377507
703,8,0.99,0,2,1,2.32634787404084,0.01,2.3,0.3277734,1.06490509357977,3.43529731997899,6.31569854410831,0.0091879,1.3,0.1287789,1.2,0.1226858
704,8,0.99,0,2,1,2.32634787404084,0.05,2.3,0.3231771,1.06490509357977,3.43529731997899,6.31569854410831,0.0097608,1.7,0.1521923,1.3,0.1303451
705,8,0.99,0,2,2,2.32634787404084,0.01,2.32,0.3729591,1.19316025178303,2.69234174801789,3.3897156305753,0.0995333,1.16,1.2910399,1.16,1.2581411
706,8,0.99,0,2,2,2.32634787404084,0.05,2.32,0.3658254,1.19316025178303,2.69234174801789,3.3897156305753,0.1077835,1.39,1.4011514,1.33,1.2983193
707,8,0.99,0,2,3,2.32634787404084,0.01,2.316,2.5445604,1.31417125936761,2.42666418634269,2.67302901374294,25.1000791,1.158,11.5715075,1.158,11.7298365
708,8,0.99,0,2,3,2.32634787404084,0.05,2.316,2.5714252,1.31417125936761,2.42666418634269,2.67302901374294,25.209888,1.325,12.5794693,1.325,12.5395038
709,9,0.99,0,2,1,2.32634787404084,0.01,2.3,0.2839826,1.09108400559278,2.48810564004456,NaN,0.0087574,1.6,0.1462658,1.3,0.1265994
710,9,0.99,0,2,1,2.32634787404084,0.05,2.3,0.2796693,1.09108400559278,2.48810564004456,NaN,0.0082668,3.4,0.2345598,1.6,0.1461015
711,9,0.99,0,2,2,2.32634787404084,0.01,2.36,0.3954304,1.1812103313341,2.43907199960666,5.71473354328139,0.1475973,1.3,1.2315339,1.3,1.3045428
712,9,0.99,0,2,2,2.32634787404084,0.05,2.36,0.4488288,1.1812103313341,2.43907199960666,5.71473354328139,0.109446,1.65,1.5488397,1.57,1.4915505
713,9,0.99,0,2,3,2.32634787404084,0.01,2.361,2.3654773,1.25146963686846,2.42851077560651,5.66415306814428,25.0257607,1.303,12.3255029,1.303,12.2939806
714,9,0.99,0,2,3,2.32634787404084,0.05,2.361,2.3971918,1.25146963686846,2.42851077560651,5.66415306814428,25.0274778,1.617,14.3952801,1.585,13.6819112
715,10,0.99,0,2,1,2.32634787404084,0.01,2.3,0.280277,0.9317888697993,3.26425632879484,4.12670901916503,0.0088416,1.5,0.1445198,1.4,0.1339977
716,10,0.99,0,2,1,2.32634787404084,0.05,2.3,0.2720357,0.9317888697993,3.26425632879484,4.12670901916503,0.0091341,1.7,0.1506714,1.5,0.1376262
717,10,0.99,0,2,2,2.32634787404084,0.01,2.32,0.3754081,1.04151858404063,2.4168516589645,3.28138615113201,0.1185756,1.43,1.3010874,1.43,1.2925003
718,10,0.99,0,2,2,2.32634787404084,0.05,2.32,0.3744741,1.04151858404063,2.4168516589645,3.28138615113201,0.1364755,1.48,1.3229823,1.45,1.3192733
719,10,0.99,0,2,3,2.32634787404084,0.01,2.323,2.3483483,1.18944801552965,2.39890607707623,3.28555479941857,26.1985631,1.429,13.1658873,1.429,12.6134396
720,10,0.99,0,2,3,2.32634787404084,0.05,2.323,2.3641567,1.18944801552965,2.39890607707623,3.28555479941857,25.4619754,1.475,13.0193257,1.442,13.1014147
721,1,0.99,0.05,0.5,1,2.32634787404084,0.01,1.9,0.3476607,NaN,NaN,NaN,0.0032776,1.4,0.1464415,1.4,0.1427677
722,1,0.99,0.05,0.5,1,2.32634787404084,0.05,1.9,0.346937,NaN,NaN,NaN,0.0032372,1.5,0.1498257,1.4,0.1457703
723,1,0.99,0.05,0.5,2,2.32634787404084,0.01,1.58,0.3899211,2.03196061400625,2.53190125265533,3.06497073131543,0.1164282,1.32,1.3022052,1.31,1.3183791
724,1,0.99,0.05,0.5,2,2.32634787404084,0.05,1.99,0.5179114,2.03196061400625,2.53190125265533,3.06497073131543,0.1041651,1.35,1.3562996,1.34,1.318975
725,1,0.99,0.05,0.5,3,2.32634787404084,0.01,1.291,1.9714014,2.00096035700909,2.52316508397383,NaN,24.8187388,1.318,13.1742744,1.294,13.3681626
726,1,0.99,0.05,0.5,3,2.32634787404084,0.05,1.291,1.9276026,2.00096035700909,2.52316508397383,NaN,24.6526944,1.34,13.1659561,1.34,13.4639156
727,2,0.99,0.05,0.5,1,2.32634787404084,0.01,1.1,0.0971241,2.30838857942184,NaN,NaN,0.0050212,3.9,0.2503855,3.9,0.2586925
728,2,0.99,0.05,0.5,1,2.32634787404084,0.05,1.5,0.2314104,2.30838857942184,NaN,NaN,0.0049267,3.9,0.2558217,3.9,0.2495165
729,2,0.99,0.05,0.5,2,2.32634787404084,0.01,1.53,0.3566902,1.58736804685437,2.33769188994137,NaN,0.0909704,1.41,1.4361586,1.4,1.4297507
730,2,0.99,0.05,0.5,2,2.32634787404084,0.05,1.53,0.3736594,1.58736804685437,2.33769188994137,NaN,0.0770606,1.41,1.4173777,1.41,1.4862777
731,2,0.99,0.05,0.5,3,2.32634787404084,0.01,1.531,1.9457357,1.5734283634244,1.7035074338629,1.93034854580501,24.8232544,1.391,13.9610853,1.391,14.2097599
732,2,0.99,0.05,0.5,3,2.32634787404084,0.05,1.531,1.8887056,1.5734283634244,1.7035074338629,1.93034854580501,24.2323427,1.391,13.8560837,1.391,13.8872835
733,3,0.99,0.05,0.5,1,2.32634787404084,0.01,1.1,0.1151332,1.68304183099716,NaN,NaN,0.0058851,2,0.1897837,2,0.1829038
734,3,0.99,0.05,0.5,1,2.32634787404084,0.05,2,0.2228182,1.68304183099716,NaN,NaN,0.005923,2,0.1894232,2,0.1848591
735,3,0.99,0.05,0.5,2,2.32634787404084,0.01,1.36,0.4742744,2.23911921886537,2.68902021020129,NaN,0.080625,1.66,1.580522,1.64,1.7051772
736,3,0.99,0.05,0.5,2,2.32634787404084,0.05,1.36,0.5231851,2.23911921886537,2.68902021020129,NaN,0.0874905,1.66,1.6832738,1.66,1.6221998
737,3,0.99,0.05,0.5,3,2.32634787404084,0.01,1.36,1.9427753,1.55793179060606,1.98267274202149,2.18834481207315,24.2914555,1.636,15.1484274,1.558,14.8458105
738,3,0.99,0.05,0.5,3,2.32634787404084,0.05,1.36,1.9558912,1.55793179060606,1.98267274202149,2.18834481207315,24.7092955,1.657,15.4617073,1.636,15.1473014
739,4,0.99,0.05,0.5,1,2.32634787404084,0.01,1.7,0.245669,1.87187039162565,NaN,NaN,0.0058475,1.6,0.1551768,1.6,0.1582859
740,4,0.99,0.05,0.5,1,2.32634787404084,0.05,1.7,0.2286962,1.87187039162565,NaN,NaN,0.0062561,1.6,0.1574386,1.6,0.1517121
741,4,0.99,0.05,0.5,2,2.32634787404084,0.01,1.75,0.3693534,1.80983144234718,NaN,NaN,0.1032392,1.28,1.3045369,1.28,1.3020869
742,4,0.99,0.05,0.5,2,2.32634787404084,0.05,1.75,0.3775703,1.80983144234718,NaN,NaN,0.0952261,1.28,1.3743223,1.28,1.3106726
743,4,0.99,0.05,0.5,3,2.32634787404084,0.01,1.24,1.9261603,1.78985959507857,2.2118768777534,2.67237258944525,24.5676839,1.281,13.2298327,1.238,12.745226
744,4,0.99,0.05,0.5,3,2.32634787404084,0.05,1.24,1.9154792,1.78985959507857,2.2118768777534,2.67237258944525,24.5979866,1.282,13.1440195,1.282,13.2527802
745,5,0.99,0.05,0.5,1,2.32634787404084,0.01,1.2,0.0916571,2.48138351231903,NaN,NaN,0.0048393,3.8,0.2548727,3.8,0.2627395
746,5,0.99,0.05,0.5,1,2.32634787404084,0.05,1.7,0.2853781,2.48138351231903,NaN,NaN,0.0053486,3.8,0.2613766,3.8,0.254791
747,5,0.99,0.05,0.5,2,2.32634787404084,0.01,1.22,0.2449393,1.70899173881785,2.3387438190752,2.57089334959759,0.1094122,1.65,1.5200351,1.65,1.5354848
748,5,0.99,0.05,0.5,2,2.32634787404084,0.05,2.36,0.5872985,1.70899173881785,2.3387438190752,2.57089334959759,0.1117028,1.65,1.5199657,1.65,1.530132
749,5,0.99,0.05,0.5,3,2.32634787404084,0.01,1.289,2.043485,1.32311753754339,1.73432843018488,2.31734825042028,25.1582269,1.564,14.3824167,1.564,14.8823324
750,5,0.99,0.05,0.5,3,2.32634787404084,0.05,1.289,2.0103495,1.32311753754339,1.73432843018488,2.31734825042028,24.3067984,1.564,14.672439,1.564,15.1317184
751,6,0.99,0.05,0.5,1,2.32634787404084,0.01,1.7,0.2122836,1.85005807490537,NaN,NaN,0.0048625,1.8,0.1731386,1.8,0.2247769
752,6,0.99,0.05,0.5,1,2.32634787404084,0.05,1.7,0.2082417,1.85005807490537,NaN,NaN,0.0057237,1.8,0.1739007,1.8,0.1729527
753,6,0.99,0.05,0.5,2,2.32634787404084,0.01,1.34,0.5021232,1.82824209162527,NaN,NaN,0.1069808,1.44,1.4310331,1.44,1.4140957
754,6,0.99,0.05,0.5,2,2.32634787404084,0.05,1.93,0.6247604,1.82824209162527,NaN,NaN,0.0806477,1.48,1.4275135,1.48,1.4591803
755,6,0.99,0.05,0.5,3,2.32634787404084,0.01,1.344,1.9003939,1.85306612196563,3.24870591845611,NaN,23.7676028,1.301,13.5468435,1.301,13.3955981
756,6,0.99,0.05,0.5,3,2.32634787404084,0.05,1.344,1.9971398,1.85306612196563,3.24870591845611,NaN,23.6418119,1.475,14.1484719,1.45,14.2860731
757,7,0.99,0.05,0.5,1,2.32634787404084,0.01,1.6,0.2055883,1.59177782337795,NaN,NaN,0.0055197,3.8,0.2633583,3.8,0.273148
758,7,0.99,0.05,0.5,1,2.32634787404084,0.05,1.6,0.205729,1.59177782337795,NaN,NaN,0.0053446,3.8,0.2662999,3.8,0.2652914
759,7,0.99,0.05,0.5,2,2.32634787404084,0.01,1.71,0.3734404,1.58494628516813,2.35244787418769,NaN,0.1005696,1.47,1.4369097,1.47,1.45507
760,7,0.99,0.05,0.5,2,2.32634787404084,0.05,1.71,0.3580783,1.58494628516813,2.35244787418769,NaN,0.0979733,1.47,1.4576318,1.47,1.4447281
761,7,0.99,0.05,0.5,3,2.32634787404084,0.01,1.71,2.4392595,1.64437206093189,2.34067911494207,NaN,24.920097,1.39,13.7839518,1.39,14.2122046
762,7,0.99,0.05,0.5,3,2.32634787404084,0.05,1.71,2.4209469,1.64437206093189,2.34067911494207,NaN,24.3855252,1.39,13.8522396,1.464,14.1760795
763,8,0.99,0.05,0.5,1,2.32634787404084,0.01,1.5,0.1971578,2.0085695330992,NaN,NaN,0.0054129,4,0.2729539,4,0.2581297
764,8,0.99,0.05,0.5,1,2.32634787404084,0.05,2.1,0.3379607,2.0085695330992,NaN,NaN,0.0055291,4,0.265919,4,0.2669289
765,8,0.99,0.05,0.5,2,2.32634787404084,0.01,1.57,0.493043,2.07526967096606,2.42280147908147,3.21194589848139,0.0872979,1.56,1.4801705,1.56,1.47897
766,8,0.99,0.05,0.5,2,2.32634787404084,0.05,1.57,0.4723465,2.07526967096606,2.42280147908147,3.21194589848139,0.0924327,1.58,1.5948259,1.57,1.6072202
767,8,0.99,0.05,0.5,3,2.32634787404084,0.01,1.382,2.0005883,2.04878063959318,2.43389365793543,3.23366648003847,25.4393898,1.498,14.2291632,1.498,14.2275014
768,8,0.99,0.05,0.5,3,2.32634787404084,0.05,1.382,1.9096325,2.04878063959318,2.43389365793543,3.23366648003847,25.3487243,1.535,15.0224303,1.498,14.2601823
769,9,0.99,0.05,0.5,1,2.32634787404084,0.01,1.6,0.2488737,1.67258654232002,NaN,NaN,0.0059027,1.6,0.1558431,1.6,0.1636056
770,9,0.99,0.05,0.5,1,2.32634787404084,0.05,1.6,0.2302671,1.67258654232002,NaN,NaN,0.0065679,1.6,0.1544994,1.6,0.1544741
771,9,0.99,0.05,0.5,2,2.32634787404084,0.01,1.44,0.3557193,1.65645293619031,2.6257820801883,NaN,0.1008518,1.37,1.3882704,1.3,1.3349992
772,9,0.99,0.05,0.5,2,2.32634787404084,0.05,1.7,0.5278646,1.65645293619031,2.6257820801883,NaN,0.0851875,1.39,1.3823137,1.37,1.370503
773,9,0.99,0.05,0.5,3,2.32634787404084,0.01,1.396,2.0059542,1.66514870768971,2.18470937355236,2.61254520231852,25.1690319,1.316,13.7561685,1.3,13.2694134
774,9,0.99,0.05,0.5,3,2.32634787404084,0.05,1.396,1.9817254,1.66514870768971,2.18470937355236,2.61254520231852,25.081628,1.389,13.6621886,1.372,14.1242877
775,10,0.99,0.05,0.5,1,2.32634787404084,0.01,1.5,0.2085714,1.5789734327953,NaN,NaN,0.0052457,1.8,0.1787304,1.8,0.1744523
776,10,0.99,0.05,0.5,1,2.32634787404084,0.05,1.5,0.2071087,1.5789734327953,NaN,NaN,0.0052383,1.8,0.1781831,1.8,0.1746625
777,10,0.99,0.05,0.5,2,2.32634787404084,0.01,1.55,0.3755302,1.64595009249132,2.85193098658769,NaN,0.0928143,1.37,1.4030808,1.33,1.3906444
778,10,0.99,0.05,0.5,2,2.32634787404084,0.05,1.55,0.3777059,1.64595009249132,2.85193098658769,NaN,0.0918374,1.37,1.395371,1.37,1.3988925
779,10,0.99,0.05,0.5,3,2.32634787404084,0.01,1.419,1.8552079,1.57436259763558,1.81079367795517,2.85350227873915,23.8759653,1.327,13.6613547,1.327,14.0800187
780,10,0.99,0.05,0.5,3,2.32634787404084,0.05,1.419,1.8654671,1.57436259763558,1.81079367795517,2.85350227873915,24.0841783,1.366,14.0623997,1.366,13.841159
781,1,0.99,0.05,1,1,2.32634787404084,0.01,2.3,0.3459106,1.38059069212482,2.49268865088219,NaN,0.0059838,1.5,0.1441361,1.5,0.1403418
782,1,0.99,0.05,1,1,2.32634787404084,0.05,2.3,0.3415999,1.38059069212482,2.49268865088219,NaN,0.0063935,1.8,0.1565968,1.6,0.1479335
783,1,0.99,0.05,1,2,2.32634787404084,0.01,2.32,0.5031218,1.48540861090676,2.39295964782243,NaN,0.1288513,1.38,1.370113,0.97,1.1199484
784,1,0.99,0.05,1,2,2.32634787404084,0.05,2.32,0.5365182,1.48540861090676,2.39295964782243,NaN,0.1031507,1.48,1.4025844,1.48,1.3616407
785,1,0.99,0.05,1,3,2.32634787404084,0.01,1.579,1.8997894,1.55677109416519,2.37595014068923,3.43155652540829,24.8488925,1.376,12.8566647,1.368,13.2611382
786,1,0.99,0.05,1,3,2.32634787404084,0.05,1.579,1.9140034,1.55677109416519,2.37595014068923,3.43155652540829,24.9606623,1.453,12.8836321,1.377,12.4601016
787,2,0.99,0.05,1,1,2.32634787404084,0.01,2.7,0.3654999,1.26887701178426,2.75661395899461,4.14171370618692,0.0076213,1.4,0.1315767,1.4,0.1321555
788,2,0.99,0.05,1,1,2.32634787404084,0.05,2.7,0.3543621,1.26887701178426,2.75661395899461,4.14171370618692,0.008168,1.4,0.1401187,1.4,0.1350214
789,2,0.99,0.05,1,2,2.32634787404084,0.01,2.32,0.3777816,1.36681239187466,2.72945953714564,4.16928808305583,0.1150987,0.87,0.9777402,0.87,0.9964008
790,2,0.99,0.05,1,2,2.32634787404084,0.05,2.74,0.6171746,1.36681239187466,2.72945953714564,4.16928808305583,0.1161227,1.43,1.3757139,1.42,1.3727351
791,2,0.99,0.05,1,3,2.32634787404084,0.01,2.317,2.5625833,1.4740594954124,2.71040405713936,4.14382645391807,25.163071,0.867,9.3141316,0.867,9.257756
792,2,0.99,0.05,1,3,2.32634787404084,0.05,2.317,2.5432164,1.4740594954124,2.71040405713936,4.14382645391807,24.8821202,1.425,13.2412849,0.992,10.1678683
793,3,0.99,0.05,1,1,2.32634787404084,0.01,1.5,0.3404835,1.49625942400698,2.47146738314001,3.91074399268247,0.0071288,1.2,0.1379463,1.2,0.1376697
794,3,0.99,0.05,1,1,2.32634787404084,0.05,1.5,0.3218354,1.49625942400698,2.47146738314001,3.91074399268247,0.0082207,1.7,0.1564117,1.2,0.1218101
795,3,0.99,0.05,1,2,2.32634787404084,0.01,1.56,0.3593611,1.57332430497966,2.4490743485009,3.78448709784407,0.1146112,1.19,1.1826612,0.94,1.0013372
796,3,0.99,0.05,1,2,2.32634787404084,0.05,1.56,0.3495134,1.57332430497966,2.4490743485009,3.78448709784407,0.0998353,1.23,1.197013,1.19,1.1725774
797,3,0.99,0.05,1,3,2.32634787404084,0.01,1.392,2.0080844,1.64872907695751,2.48880661317085,3.76447537821363,25.1913644,1.189,11.613116,0.944,10.4431251
798,3,0.99,0.05,1,3,2.32634787404084,0.05,1.392,1.9507652,1.64872907695751,2.48880661317085,3.76447537821363,24.7176956,1.233,11.8492357,1.189,11.8821062
799,4,0.99,0.05,1,1,2.32634787404084,0.01,1.4,0.2864987,1.35848137210339,NaN,NaN,0.0061494,1.6,0.1527897,1.4,0.1359649
800,4,0.99,0.05,1,1,2.32634787404084,0.05,1.4,0.2790914,1.35848137210339,NaN,NaN,0.0066136,1.6,0.1491749,1.6,0.1539825
801,4,0.99,0.05,1,2,2.32634787404084,0.01,1.45,0.3894322,1.352753286166,2.4048946377233,3.52075124594528,0.0978739,1.42,1.3318185,1.42,1.3119203
802,4,0.99,0.05,1,2,2.32634787404084,0.05,1.45,0.3500006,1.352753286166,2.4048946377233,3.52075124594528,0.1155099,1.42,1.3125763,1.42,1.3126853
803,4,0.99,0.05,1,3,2.32634787404084,0.01,1.279,2.0928922,1.42814734440962,2.38039756427996,3.51903360658886,25.0391744,1.419,12.9706519,1.385,12.9709903
804,4,0.99,0.05,1,3,2.32634787404084,0.05,1.279,2.0344928,1.42814734440962,2.38039756427996,3.51903360658886,25.3501726,1.421,12.8849633,1.421,12.831528
805,5,0.99,0.05,1,1,2.32634787404084,0.01,2.3,0.3654732,1.24991913785415,2.58257004696712,3.61223496594141,0.0072174,1.9,0.1689792,1.3,0.1347527
806,5,0.99,0.05,1,1,2.32634787404084,0.05,2.3,0.3615425,1.24991913785415,2.58257004696712,3.61223496594141,0.0070337,2.1,0.1778252,2,0.1670862
807,5,0.99,0.05,1,2,2.32634787404084,0.01,2.32,0.4718548,1.35631486131143,2.52532732438556,3.51016947348085,0.1276078,1.39,1.2815417,1.31,1.2395942
808,5,0.99,0.05,1,2,2.32634787404084,0.05,2.32,0.4782426,1.35631486131143,2.52532732438556,3.51016947348085,0.1129786,1.85,1.5512877,1.39,1.2770099
809,5,0.99,0.05,1,3,2.32634787404084,0.01,2.324,2.8489085,1.45552117415268,2.40777606701559,3.51465493304095,26.1802298,1.384,12.6632883,1.309,12.2153213
810,5,0.99,0.05,1,3,2.32634787404084,0.05,2.324,2.7129351,1.45552117415268,2.40777606701559,3.51465493304095,25.9499953,1.848,15.1877776,1.388,12.673788
811,6,0.99,0.05,1,1,2.32634787404084,0.01,1.6,0.2570235,2.44134881086324,3.41059975847418,NaN,0.007063,1.3,0.1330249,1.2,0.1259574
812,6,0.99,0.05,1,1,2.32634787404084,0.05,1.6,0.2588813,2.44134881086324,3.41059975847418,NaN,0.0073334,1.6,0.1512888,1.5,0.140795
813,6,0.99,0.05,1,2,2.32634787404084,0.01,1.82,0.4723974,1.73925509799923,2.37822042820874,2.88298288636231,0.1186153,0.96,1.0438243,0.96,1.011314
814,6,0.99,0.05,1,2,2.32634787404084,0.05,1.82,0.4722749,1.73925509799923,2.37822042820874,2.88298288636231,0.1217914,1.28,1.2133969,1,1.0350566
815,6,0.99,0.05,1,3,2.32634787404084,0.01,1.71,2.4056592,1.77911100888358,2.35868592393161,2.89527756656568,24.7172767,0.961,10.3593954,0.939,10.0449098
816,6,0.99,0.05,1,3,2.32634787404084,0.05,1.71,2.3980252,1.77911100888358,2.35868592393161,2.89527756656568,24.7035363,1.275,12.4274444,0.986,10.2422618
817,7,0.99,0.05,1,1,2.32634787404084,0.01,1.4,0.2997056,1.34983071381838,2.48744293151104,NaN,0.0092408,1.5,0.1501064,1.3,0.1351266
818,7,0.99,0.05,1,1,2.32634787404084,0.05,1.4,0.281793,1.34983071381838,2.48744293151104,NaN,0.008029,1.6,0.1503839,1.5,0.1396703
819,7,0.99,0.05,1,2,2.32634787404084,0.01,2.34,0.5008404,1.3896251582186,2.40931152600931,3.03055231896653,0.1120226,0.91,1.0157182,0.91,1.0835701
820,7,0.99,0.05,1,2,2.32634787404084,0.05,2.34,0.5525268,1.3896251582186,2.40931152600931,3.03055231896653,0.1233841,1.46,1.4272803,0.91,1.1185881
821,7,0.99,0.05,1,3,2.32634787404084,0.01,1.367,1.9734147,1.45175594459566,2.39440393909557,3.05470557491363,23.9536596,0.912,9.873759,0.885,9.8844803
822,7,0.99,0.05,1,3,2.32634787404084,0.05,1.367,1.929397,1.45175594459566,2.39440393909557,3.05470557491363,24.0741655,1.454,13.131729,0.912,9.9372567
823,8,0.99,0.05,1,1,2.32634787404084,0.01,2.3,0.399325,1.24064704823073,3.45244977452375,3.86058031841893,0.0085827,1.4,0.1383634,1.4,0.1344495
824,8,0.99,0.05,1,1,2.32634787404084,0.05,2.3,0.393672,1.24064704823073,3.45244977452375,3.86058031841893,0.0085206,1.8,0.1591103,1.7,0.1489646
825,8,0.99,0.05,1,2,2.32634787404084,0.01,2.33,0.3802325,1.37702668700485,2.46199679676662,3.31037626040111,0.105173,0.9,0.9439887,0.89,0.94476
826,8,0.99,0.05,1,2,2.32634787404084,0.05,2.33,0.3734187,1.37702668700485,2.46199679676662,3.31037626040111,0.126819,1.73,1.469723,1.42,1.2713799
827,8,0.99,0.05,1,3,2.32634787404084,0.01,2.328,2.751069,1.52439203065927,2.43197935690506,2.79445739308358,26.2811092,0.896,9.5610758,0.896,9.3295239
828,8,0.99,0.05,1,3,2.32634787404084,0.05,2.328,2.7382212,1.52439203065927,2.43197935690506,2.79445739308358,26.1474036,1.728,14.0295843,1.421,13.1945305
829,9,0.99,0.05,1,1,2.32634787404084,0.01,2.2,0.4662578,1.17915699416374,2.40811210969018,3.69689316787496,0.0082619,1.7,0.1681946,1.4,0.1578249
830,9,0.99,0.05,1,1,2.32634787404084,0.05,2.2,0.4841492,1.17915699416374,2.40811210969018,3.69689316787496,0.0094216,2.1,0.1925835,2.1,0.2249844
831,9,0.99,0.05,1,2,2.32634787404084,0.01,2.3,0.4948336,1.30337355327745,2.32936110477103,3.68587687756868,0.1185024,1.45,1.3396865,0.9,0.9921308
832,9,0.99,0.05,1,2,2.32634787404084,0.05,2.3,0.4785038,1.30337355327745,2.32936110477103,3.68587687756868,0.1091103,1.45,1.3333096,1.45,1.3455958
833,9,0.99,0.05,1,3,2.32634787404084,0.01,2.291,2.409636,1.39637874074408,2.31262366857658,3.44150539246962,24.1005877,1.449,13.4063288,0.898,10.3176534
834,9,0.99,0.05,1,3,2.32634787404084,0.05,2.291,2.4251475,1.39637874074408,2.31262366857658,3.44150539246962,24.3278096,1.45,13.1804263,1.449,13.417995
835,10,0.99,0.05,1,1,2.32634787404084,0.01,2.3,0.4141343,1.45027978184612,2.46832110428966,3.37356436866548,0.0064659,1.4,0.1439767,1.3,0.1357791
836,10,0.99,0.05,1,1,2.32634787404084,0.05,2.3,0.4117161,1.45027978184612,2.46832110428966,3.37356436866548,0.0066708,1.7,0.1558672,1.4,0.142596
837,10,0.99,0.05,1,2,2.32634787404084,0.01,2.33,0.6199283,1.57418165077894,2.39063942340794,2.72047372226298,0.1087757,1.25,1.2298615,1.25,1.231883
838,10,0.99,0.05,1,2,2.32634787404084,0.05,2.33,0.5891315,1.57418165077894,2.39063942340794,2.72047372226298,0.1046855,1.25,1.2282396,1.25,1.3304291
839,10,0.99,0.05,1,3,2.32634787404084,0.01,1.741,2.43467,1.64476622135911,2.37302961443172,3.34291421984041,24.1491288,1.248,12.229343,1.246,12.5015297
840,10,0.99,0.05,1,3,2.32634787404084,0.05,1.741,2.3130702,1.64476622135911,2.37302961443172,3.34291421984041,24.0994678,1.25,12.2665266,1.248,12.265262
841,1,0.99,0.05,2,1,2.32634787404084,0.01,2.3,0.4825452,1.16519992693404,2.46279131578823,4.81949953211116,0.0090512,1.5,0.1415978,1.5,0.1392988
842,1,0.99,0.05,2,1,2.32634787404084,0.05,2.3,0.4784525,1.16519992693404,2.46279131578823,4.81949953211116,0.0093381,1.6,0.1460691,1.6,0.1444896
843,1,0.99,0.05,2,2,2.32634787404084,0.01,2.32,0.318486,1.25755675812443,2.39950948206204,3.76981116613168,0.1124404,1.53,1.3822893,1.53,1.3958879
844,1,0.99,0.05,2,2,2.32634787404084,0.05,2.32,0.3495896,1.25755675812443,2.39950948206204,3.76981116613168,0.105024,1.56,1.4169637,1.53,1.3712878
845,1,0.99,0.05,2,3,2.32634787404084,0.01,2.329,2.3315314,1.3692210563063,2.39135974557187,3.74332731250016,25.0998617,1.524,13.5903433,1.524,13.4588334
846,1,0.99,0.05,2,3,2.32634787404084,0.05,2.329,2.2679411,1.3692210563063,2.39135974557187,3.74332731250016,24.7371406,1.529,14.0828026,1.529,13.5500706
847,2,0.99,0.05,2,1,2.32634787404084,0.01,2.3,0.5264581,1.20562367969217,2.46982197035252,3.30167601524728,0.009102,1.3,0.1286453,1.2,0.1230851
848,2,0.99,0.05,2,1,2.32634787404084,0.05,2.3,0.4863067,1.20562367969217,2.46982197035252,3.30167601524728,0.0089439,1.3,0.1285882,1.3,0.1244205
849,2,0.99,0.05,2,2,2.32634787404084,0.01,2.32,0.3745541,1.32417254265472,2.410780371848,2.97058321039482,0.1043041,1.29,1.2209124,1.25,1.1836646
850,2,0.99,0.05,2,2,2.32634787404084,0.05,2.32,0.3735131,1.32417254265472,2.410780371848,2.97058321039482,0.1013914,1.32,1.27695,1.29,1.2343489
851,2,0.99,0.05,2,3,2.32634787404084,0.01,2.325,2.3456226,1.41518580165753,2.3876530770351,2.98005102634067,23.7251211,1.29,12.4886089,1.25,12.0783014
852,2,0.99,0.05,2,3,2.32634787404084,0.05,2.325,2.3497038,1.41518580165753,2.3876530770351,2.98005102634067,23.8739535,1.315,12.594582,1.29,12.1045373
853,3,0.99,0.05,2,1,2.32634787404084,0.01,2.3,0.3322534,0.97691189069547,3.79684705647564,4.32940132411438,0.0091711,1.4,0.1792706,1.4,0.1405488
854,3,0.99,0.05,2,1,2.32634787404084,0.05,2.3,0.3501918,0.97691189069547,3.79684705647564,4.32940132411438,0.0103334,1.5,0.1389055,1.5,0.1431872
855,3,0.99,0.05,2,2,2.32634787404084,0.01,2.31,0.4053141,1.08278031467113,2.36320314705819,3.69794113030156,0.1257877,1.42,1.3659487,1.42,1.398096
856,3,0.99,0.05,2,2,2.32634787404084,0.05,2.31,0.4222697,1.08278031467113,2.36320314705819,3.69794113030156,0.141941,1.48,1.3305042,1.42,1.2834974
857,3,0.99,0.05,2,3,2.32634787404084,0.01,2.315,2.3075504,1.2064493180081,2.33770744416063,3.67862374980403,25.8530272,1.423,13.2957883,1.418,12.7751413
858,3,0.99,0.05,2,3,2.32634787404084,0.05,2.315,2.3298629,1.2064493180081,2.33770744416063,3.67862374980403,26.2087438,1.485,13.1741489,1.423,12.958627
859,4,0.99,0.05,2,1,2.32634787404084,0.01,2.3,0.5006195,1.37131691066016,2.40989249870449,4.42890355948847,0.0087008,1.2,0.1239829,1.2,0.1222408
860,4,0.99,0.05,2,1,2.32634787404084,0.05,2.3,0.5125231,1.37131691066016,2.40989249870449,4.42890355948847,0.0085472,1.2,0.1253239,1.2,0.1243703
861,4,0.99,0.05,2,2,2.32634787404084,0.01,2.32,0.3847161,1.47999292319031,2.36087021763143,3.03401605285573,0.1087424,1.16,1.146519,0.92,0.9663891
862,4,0.99,0.05,2,2,2.32634787404084,0.05,2.32,0.4241027,1.47999292319031,2.36087021763143,3.03401605285573,0.1110254,1.16,1.1387087,1.16,1.1274526
863,4,0.99,0.05,2,3,2.32634787404084,0.01,2.326,2.5908423,1.59531528057238,2.35273822060441,4.51596564943153,23.8399368,0.893,9.4381903,0.884,9.2731705
864,4,0.99,0.05,2,3,2.32634787404084,0.05,2.326,2.5941866,1.59531528057238,2.35273822060441,4.51596564943153,24.2861298,0.92,10.1581808,0.912,9.541289
865,5,0.99,0.05,2,1,2.32634787404084,0.01,2.3,0.4994007,1.17156599332734,2.60364337861693,3.4150478111742,0.009744,1.7,0.1532086,1.6,0.1615401
866,5,0.99,0.05,2,1,2.32634787404084,0.05,3.3,0.682086,1.17156599332734,2.60364337861693,3.4150478111742,0.0091393,1.7,0.1509703,1.7,0.1548145
867,5,0.99,0.05,2,2,2.32634787404084,0.01,2.32,0.3489415,1.2987069041122,2.64654055262905,3.17330521287918,0.1368087,1.36,1.3565904,1.34,1.2837812
868,5,0.99,0.05,2,2,2.32634787404084,0.05,2.32,0.3688506,1.2987069041122,2.64654055262905,3.17330521287918,0.1288582,1.65,1.4608896,1.65,1.4657512
869,5,0.99,0.05,2,3,2.32634787404084,0.01,2.324,2.5538775,1.42911220843531,2.46679247201461,2.62397467112598,25.308109,1.358,12.8700342,1.356,12.835786
870,5,0.99,0.05,2,3,2.32634787404084,0.05,2.324,2.5445771,1.42911220843531,2.46679247201461,2.62397467112598,24.9469637,1.647,14.3580265,1.647,14.3598543
871,6,0.99,0.05,2,1,2.32634787404084,0.01,2.3,0.5646529,1.22725101304247,3.77915156535282,4.59416968117202,0.0090302,1.3,0.1378986,1.3,0.1351187
872,6,0.99,0.05,2,1,2.32634787404084,0.05,2.3,0.4795558,1.22725101304247,3.77915156535282,4.59416968117202,0.0094659,1.3,0.1291904,1.3,0.1253169
873,6,0.99,0.05,2,2,2.32634787404084,0.01,2.32,0.4157612,1.29275990816175,3.75407505150921,4.93324987829148,0.1122039,1.32,1.2795501,1.32,1.2622602
874,6,0.99,0.05,2,2,2.32634787404084,0.05,2.32,0.4180591,1.29275990816175,3.75407505150921,4.93324987829148,0.1203698,1.32,1.2635256,1.32,1.2567616
875,6,0.99,0.05,2,3,2.32634787404084,0.01,2.319,2.3526037,1.37730010792331,2.3985262452942,3.75861943263193,24.9954763,1.304,12.694381,1.296,12.2796127
876,6,0.99,0.05,2,3,2.32634787404084,0.05,2.319,2.4898792,1.37730010792331,2.3985262452942,3.75861943263193,24.9436437,1.316,12.4759892,1.316,12.6604507
877,7,0.99,0.05,2,1,2.32634787404084,0.01,2.3,0.5292786,1.26095586806748,4.15750447976191,4.86538662484246,0.0093689,1.4,0.1383093,1.4,0.1342924
878,7,0.99,0.05,2,1,2.32634787404084,0.05,2.3,0.4906838,1.26095586806748,4.15750447976191,4.86538662484246,0.0095729,1.5,0.1465334,1.5,0.1406956
879,7,0.99,0.05,2,2,2.32634787404084,0.01,2.32,0.3874941,1.33368148068891,2.39499353233006,3.37691262542446,0.1437364,1.44,1.3769109,1.43,1.3827124
880,7,0.99,0.05,2,2,2.32634787404084,0.05,2.32,0.4142135,1.33368148068891,2.39499353233006,3.37691262542446,0.1462454,1.44,1.3545057,1.44,1.3832876
881,7,0.99,0.05,2,3,2.32634787404084,0.01,2.323,2.3151827,1.4324119090639,2.36020751392127,3.34333408161565,24.6634452,1.428,13.2213616,1.428,13.3338238
882,7,0.99,0.05,2,3,2.32634787404084,0.05,2.323,2.4033455,1.4324119090639,2.36020751392127,3.34333408161565,24.8153513,1.436,13.3393445,1.436,13.2215381
883,8,0.99,0.05,2,1,2.32634787404084,0.01,2.3,0.3128492,1.01305856914677,3.47077835692305,4.66906973763747,0.0082982,1.8,0.1610008,1.8,0.1596702
884,8,0.99,0.05,2,1,2.32634787404084,0.05,5.1,0.439613,1.01305856914677,3.47077835692305,4.66906973763747,0.0083643,7.7,0.3566773,7.7,0.3596912
885,8,0.99,0.05,2,2,2.32634787404084,0.01,2.32,0.3667741,1.17705459320197,3.45670761113264,4.68421941175085,0.1100773,1.74,1.5021421,1.59,1.4109947
886,8,0.99,0.05,2,2,2.32634787404084,0.05,2.32,0.3847733,1.17705459320197,3.45670761113264,4.68421941175085,0.1239288,1.8,1.5316199,1.74,1.4843714
887,8,0.99,0.05,2,3,2.32634787404084,0.01,2.326,2.4299315,1.31243797791855,3.44389964144452,4.67290057319747,25.2498646,1.736,14.2946906,1.588,13.4906039
888,8,0.99,0.05,2,3,2.32634787404084,0.05,2.326,2.4216035,1.31243797791855,3.44389964144452,4.67290057319747,25.0211328,1.756,14.7872322,1.743,14.2262866
889,9,0.99,0.05,2,1,2.32634787404084,0.01,1.4,0.3579227,1.37781155103497,2.49211786618961,2.95521845958816,0.009073,1.2,0.1228448,1.2,0.1267157
890,9,0.99,0.05,2,1,2.32634787404084,0.05,1.4,0.346799,1.37781155103497,2.49211786618961,2.95521845958816,0.0082165,1.2,0.1253646,1.2,0.1205869
891,9,0.99,0.05,2,2,2.32634787404084,0.01,1.5,0.2741702,1.46606357151383,2.44947483577936,3.03754339529358,0.1332139,1.16,1.1836935,1.16,1.2331298
892,9,0.99,0.05,2,2,2.32634787404084,0.05,1.5,0.2579327,1.46606357151383,2.44947483577936,3.03754339529358,0.1052733,1.19,1.1962288,1.19,1.1750293
893,9,0.99,0.05,2,3,2.32634787404084,0.01,1.591,2.2998807,1.5306242439404,2.41773904388872,3.04778139125415,24.735046,1.162,12.077712,1.162,11.5511203
894,9,0.99,0.05,2,3,2.32634787404084,0.05,1.591,2.3152368,1.5306242439404,2.41773904388872,3.04778139125415,24.5233503,1.185,12.0036034,1.185,11.8670819
895,10,0.99,0.05,2,1,2.32634787404084,0.01,2.3,0.5164451,1.14818465779124,2.46899901255967,3.32418014807515,0.0082381,1.5,0.1418929,1.5,0.1383644
896,10,0.99,0.05,2,1,2.32634787404084,0.05,2.3,0.5274555,1.14818465779124,2.46899901255967,3.32418014807515,0.0089319,1.5,0.1423334,1.5,0.171403
897,10,0.99,0.05,2,2,2.32634787404084,0.01,2.32,0.3495871,1.24796364351834,2.41680437821709,3.4256597531526,0.1186834,1.2,1.2433064,1.46,1.3781952
898,10,0.99,0.05,2,2,2.32634787404084,0.05,2.32,0.3676085,1.24796364351834,2.41680437821709,3.4256597531526,0.1217627,1.49,1.3451504,1.49,1.3405171
899,10,0.99,0.05,2,3,2.32634787404084,0.01,2.32,2.5292912,1.37542768262852,2.40937456653763,3.42836432844266,24.9068372,1.2,11.6464908,1.46,13.1379568
900,10,0.99,0.05,2,3,2.32634787404084,0.05,2.32,2.5423865,1.37542768262852,2.40937456653763,3.42836432844266,25.1747844,1.488,13.1671353,1.488,13.4038128
901,1,0.99,0.1,0.5,1,2.32634787404084,0.01,1.5,0.228043,1.62424838147099,NaN,NaN,0.0051465,3.7,0.2637178,3.7,0.2586177
902,1,0.99,0.1,0.5,1,2.32634787404084,0.05,1.5,0.2184773,1.62424838147099,NaN,NaN,0.0050896,3.7,0.2650767,3.7,0.2645804
903,1,0.99,0.1,0.5,2,2.32634787404084,0.01,1.57,0.3722362,1.59614499341687,2.43994015555208,2.89968338359037,0.1117495,1.52,1.5307421,1.52,1.5318293
904,1,0.99,0.1,0.5,2,2.32634787404084,0.05,1.57,0.3780904,1.59614499341687,2.43994015555208,2.89968338359037,0.1110432,1.54,1.5302367,1.54,1.531899
905,1,0.99,0.1,0.5,3,2.32634787404084,0.01,1.515,2.0183542,1.58191876371052,2.42302344207401,2.88854425970424,24.7758959,1.513,14.7737398,1.513,15.0359142
906,1,0.99,0.1,0.5,3,2.32634787404084,0.05,1.632,2.4048787,1.58191876371052,2.42302344207401,2.88854425970424,24.9426691,1.541,14.8260072,1.524,14.8011283
907,2,0.99,0.1,0.5,1,2.32634787404084,0.01,1.5,0.2300286,2.44321009977344,NaN,NaN,0.0055506,1.7,0.167457,1.7,0.1664914
908,2,0.99,0.1,0.5,1,2.32634787404084,0.05,2,0.3734527,2.44321009977344,NaN,NaN,0.0053999,1.7,0.1728513,1.7,0.1702873
909,2,0.99,0.1,0.5,2,2.32634787404084,0.01,1.63,0.3482903,1.94798516698785,2.43343934939188,3.26610850680859,0.1133809,1.4,1.404302,1.4,1.4067213
910,2,0.99,0.1,0.5,2,2.32634787404084,0.05,1.63,0.3613081,1.94798516698785,2.43343934939188,3.26610850680859,0.1148864,1.42,1.534749,1.42,1.5057158
911,2,0.99,0.1,0.5,3,2.32634787404084,0.01,1.385,1.9282798,1.97352081929563,2.3821142847214,2.55433212678354,25.34426,1.401,13.9696951,1.401,13.9935703
912,2,0.99,0.1,0.5,3,2.32634787404084,0.05,1.385,1.8633435,1.97352081929563,2.3821142847214,2.55433212678354,25.3469776,1.422,14.4110316,1.422,14.0599266
913,3,0.99,0.1,0.5,1,2.32634787404084,0.01,1.8,0.232289,1.50906340385324,NaN,NaN,0.0049435,3.7,0.2593176,3.7,0.2548332
914,3,0.99,0.1,0.5,1,2.32634787404084,0.05,2.2,0.3637123,1.50906340385324,NaN,NaN,0.0048543,3.7,0.2589369,3.7,0.2557569
915,3,0.99,0.1,0.5,2,2.32634787404084,0.01,1.49,0.3704162,1.59575473442961,2.5890943559072,3.10150197767429,0.0960938,1.45,1.4665339,1.45,1.448179
916,3,0.99,0.1,0.5,2,2.32634787404084,0.05,1.49,0.3878662,1.59575473442961,2.5890943559072,3.10150197767429,0.0955046,1.63,1.5625839,1.45,1.4735626
917,3,0.99,0.1,0.5,3,2.32634787404084,0.01,1.492,1.9253867,1.70736705891629,2.30910518424047,2.5845673690528,24.6650531,1.447,14.7272572,1.443,14.4301379
918,3,0.99,0.1,0.5,3,2.32634787404084,0.05,1.492,1.9280608,1.70736705891629,2.30910518424047,2.5845673690528,24.8749737,1.465,14.683588,1.447,14.7643753
919,4,0.99,0.1,0.5,1,2.32634787404084,0.01,1.5,0.2346975,2.5781695417527,NaN,NaN,0.0049832,1.6,0.1571245,1.5,0.1487678
920,4,0.99,0.1,0.5,1,2.32634787404084,0.05,2.3,0.6630728,2.5781695417527,NaN,NaN,0.0052545,1.6,0.1562831,1.6,0.1568089
921,4,0.99,0.1,0.5,2,2.32634787404084,0.01,1.47,0.3968766,2.29513868410526,3.19551861481215,NaN,0.1100738,1.32,1.2895795,1.32,1.3015941
922,4,0.99,0.1,0.5,2,2.32634787404084,0.05,2.05,0.5190015,2.29513868410526,3.19551861481215,NaN,0.087521,1.43,1.3703667,1.43,1.3652473
923,4,0.99,0.1,0.5,3,2.32634787404084,0.01,1.369,2.0258269,2.27464248436181,3.18647671098018,NaN,25.2335722,1.322,12.8363427,1.322,13.3285691
924,4,0.99,0.1,0.5,3,2.32634787404084,0.05,1.369,2.0606216,2.27464248436181,3.18647671098018,NaN,24.8683479,1.428,13.6005777,1.428,13.305608
925,5,0.99,0.1,0.5,1,2.32634787404084,0.01,1.4,0.213903,1.96251401334713,NaN,NaN,0.0060836,1.8,0.1880675,1.8,0.1693956
926,5,0.99,0.1,0.5,1,2.32634787404084,0.05,1.8,0.3618889,1.96251401334713,NaN,NaN,0.0060406,1.9,0.1785483,1.9,0.1706763
927,5,0.99,0.1,0.5,2,2.32634787404084,0.01,1.4,0.5196784,1.91018730788896,2.51884628781414,3.0054715167804,0.0786363,1.39,1.5180813,1.39,1.4902103
928,5,0.99,0.1,0.5,2,2.32634787404084,0.05,1.87,0.6244545,1.91018730788896,2.51884628781414,3.0054715167804,0.0935174,1.56,1.5502897,1.39,1.3783948
929,5,0.99,0.1,0.5,3,2.32634787404084,0.01,1.4,1.9437009,1.89533612055229,3.00690926422247,NaN,24.8404356,1.351,13.6201266,1.351,13.6159123
930,5,0.99,0.1,0.5,3,2.32634787404084,0.05,1.4,1.9566302,1.89533612055229,3.00690926422247,NaN,24.7481043,1.351,13.4802425,1.351,13.6899074
931,6,0.99,0.1,0.5,1,2.32634787404084,0.01,1.4,0.2530321,2.66855880357194,NaN,NaN,0.0057996,1.6,0.1577875,1.5,0.2003402
932,6,0.99,0.1,0.5,1,2.32634787404084,0.05,2,0.3330839,2.66855880357194,NaN,NaN,0.0062347,1.6,0.1983091,1.6,0.1646341
933,6,0.99,0.1,0.5,2,2.32634787404084,0.01,1.44,0.5175885,2.05213803104995,2.59932472395799,NaN,0.0947335,1.3,1.3318434,1.28,1.326487
934,6,0.99,0.1,0.5,2,2.32634787404084,0.05,2.07,0.5825528,2.05213803104995,2.59932472395799,NaN,0.0885758,1.37,1.3861246,1.34,1.3483362
935,6,0.99,0.1,0.5,3,2.32634787404084,0.01,1.332,1.8947453,1.42565763870715,2.07163776678342,2.58363320213755,24.0106937,1.269,13.0617273,1.269,13.0161436
936,6,0.99,0.1,0.5,3,2.32634787404084,0.05,1.332,1.9030369,1.42565763870715,2.07163776678342,2.58363320213755,23.7272092,1.345,13.6554031,1.345,13.6127017
937,7,0.99,0.1,0.5,1,2.32634787404084,0.01,1.7,0.2534226,1.79879543567618,NaN,NaN,0.0045274,3.6,0.2492912,3.6,0.2478497
938,7,0.99,0.1,0.5,1,2.32634787404084,0.05,1.7,0.2398591,1.79879543567618,NaN,NaN,0.0050108,3.6,0.2479034,3.6,0.2523971
939,7,0.99,0.1,0.5,2,2.32634787404084,0.01,1.96,0.3501165,1.74955168803061,2.27522786857641,2.78441469619708,0.1247979,1.69,1.6303846,1.69,1.6593475
940,7,0.99,0.1,0.5,2,2.32634787404084,0.05,1.96,0.357244,1.74955168803061,2.27522786857641,2.78441469619708,0.1051485,1.69,1.6350762,1.69,1.6457552
941,7,0.99,0.1,0.5,3,2.32634787404084,0.01,1.42,1.9468156,1.86283217093294,2.29143176272991,2.79470438838752,25.2756101,1.568,15.8082226,1.568,15.4558673
942,7,0.99,0.1,0.5,3,2.32634787404084,0.05,1.42,1.9491236,1.86283217093294,2.29143176272991,2.79470438838752,25.6006882,1.657,16.3554132,1.568,15.4957883
943,8,0.99,0.1,0.5,1,2.32634787404084,0.01,1,0.0971598,1.65439276574772,NaN,NaN,0.0052123,3.5,0.2567404,3.5,0.2541655
944,8,0.99,0.1,0.5,1,2.32634787404084,0.05,1.5,0.1913532,1.65439276574772,NaN,NaN,0.005314,3.5,0.2552687,3.5,0.2545234
945,8,0.99,0.1,0.5,2,2.32634787404084,0.01,1.53,0.3938707,1.84796728161039,NaN,NaN,0.087128,3.46,2.243023,3.46,2.251761
946,8,0.99,0.1,0.5,2,2.32634787404084,0.05,1.53,0.3920513,1.84796728161039,NaN,NaN,0.0791571,3.46,2.2614954,3.46,2.2359042
947,8,0.99,0.1,0.5,3,2.32634787404084,0.01,1.506,1.8569821,1.87128378116265,2.77727206032559,NaN,24.8941926,1.887,17.1705461,1.887,16.8919617
948,8,0.99,0.1,0.5,3,2.32634787404084,0.05,1.506,1.858282,1.87128378116265,2.77727206032559,NaN,24.4084208,1.887,17.2522979,1.887,16.8623592
949,9,0.99,0.1,0.5,1,2.32634787404084,0.01,1.9,0.3912278,2.07908888477176,NaN,NaN,0.0051206,1.5,0.1524352,1.5,0.148976
950,9,0.99,0.1,0.5,1,2.32634787404084,0.05,1.9,0.3963908,2.07908888477176,NaN,NaN,0.0056474,1.5,0.153657,1.5,0.1544636
951,9,0.99,0.1,0.5,2,2.32634787404084,0.01,1.96,0.5882536,2.06616667648078,2.75654870752723,NaN,0.1005978,1.35,1.3389822,1.33,1.3584868
952,9,0.99,0.1,0.5,2,2.32634787404084,0.05,1.96,0.5880767,2.06616667648078,2.75654870752723,NaN,0.0922836,1.35,1.3480549,1.35,1.3930993
953,9,0.99,0.1,0.5,3,2.32634787404084,0.01,1.53,2.6111505,2.06271387035677,2.79330400074193,NaN,25.6133298,1.333,13.8143267,1.331,13.2873725
954,9,0.99,0.1,0.5,3,2.32634787404084,0.05,1.53,2.6115468,2.06271387035677,2.79330400074193,NaN,25.2720671,1.333,13.2859202,1.333,13.7256475
955,10,0.99,0.1,0.5,1,2.32634787404084,0.01,1.6,0.3058697,1.62793592319476,2.46416572953092,NaN,0.006805,1.6,0.1606376,1.6,0.1565092
956,10,0.99,0.1,0.5,1,2.32634787404084,0.05,1.6,0.3090244,1.62793592319476,2.46416572953092,NaN,0.0066884,1.6,0.1634168,1.6,0.168494
957,10,0.99,0.1,0.5,2,2.32634787404084,0.01,1.47,0.3533279,1.59248380851474,2.56999869693996,3.02190974289236,0.0982372,1.32,1.3303917,1.24,1.2865668
958,10,0.99,0.1,0.5,2,2.32634787404084,0.05,1.47,0.3537577,1.59248380851474,2.56999869693996,3.02190974289236,0.1114867,1.39,1.3921551,1.32,1.3382595
959,10,0.99,0.1,0.5,3,2.32634787404084,0.01,1.396,1.9175099,1.61791575668134,2.32339519654771,2.57178780441083,24.2266934,1.322,13.4300425,1.249,13.2402604
960,10,0.99,0.1,0.5,3,2.32634787404084,0.05,1.396,1.9501919,1.61791575668134,2.32339519654771,2.57178780441083,24.5639331,1.387,13.7632522,1.322,13.3226512
961,1,0.99,0.1,1,1,2.32634787404084,0.01,2.3,0.3715966,1.32752461159355,2.5901703497007,NaN,0.0069953,1.9,0.1624933,1.9,0.1638721
962,1,0.99,0.1,1,1,2.32634787404084,0.05,2.3,0.3571062,1.32752461159355,2.5901703497007,NaN,0.0069494,1.9,0.1628227,1.9,0.1637034
963,1,0.99,0.1,1,2,2.32634787404084,0.01,2.32,0.4739639,1.400088501663,2.77421184966146,4.58830197492197,0.1271179,1.58,1.3704332,0.98,1.0074348
964,1,0.99,0.1,1,2,2.32634787404084,0.05,2.32,0.4778212,1.400088501663,2.77421184966146,4.58830197492197,0.1128936,1.91,1.7268169,1.91,1.6838183
965,1,0.99,0.1,1,3,2.32634787404084,0.01,2.332,2.5736705,1.47081983659555,2.77401252354625,4.56108859744326,24.7624276,1.577,13.3104797,0.979,10.3849682
966,1,0.99,0.1,1,3,2.32634787404084,0.05,2.332,2.4438254,1.47081983659555,2.77401252354625,4.56108859744326,25.2042341,1.912,14.8541176,1.912,14.8077538
967,2,0.99,0.1,1,1,2.32634787404084,0.01,2.2,0.4150984,1.41774691584545,3.81918893219392,NaN,0.0065414,1.4,0.1366359,1.1,0.1182876
968,2,0.99,0.1,1,1,2.32634787404084,0.05,2.2,0.4466432,1.41774691584545,3.81918893219392,NaN,0.0067476,1.4,0.1466527,1.3,0.1335356
969,2,0.99,0.1,1,2,2.32634787404084,0.01,2.27,0.5649113,1.54112311339509,2.70937106287669,3.86617970021316,0.1055124,0.99,1.1505686,0.92,1.0191559
970,2,0.99,0.1,1,2,2.32634787404084,0.05,2.27,0.5166394,1.54112311339509,2.70937106287669,3.86617970021316,0.1135649,1.16,1.1621256,1.15,1.1420408
971,2,0.99,0.1,1,3,2.32634787404084,0.01,1.694,2.3635745,1.62064426361726,2.33627738905963,2.70208556592469,24.231153,0.916,9.8301349,0.916,9.8289718
972,2,0.99,0.1,1,3,2.32634787404084,0.05,1.694,2.3903516,1.62064426361726,2.33627738905963,2.70208556592469,24.5599702,1.154,12.1548221,1.149,13.6867335
973,3,0.99,0.1,1,1,2.32634787404084,0.01,2.4,0.6017948,1.21651886805521,NaN,NaN,0.0094904,1.5,0.2005005,1.3,0.1845421
974,3,0.99,0.1,1,1,2.32634787404084,0.05,2.4,0.5118642,1.21651886805521,NaN,NaN,0.0090455,1.7,0.2047552,1.3,0.1666751
975,3,0.99,0.1,1,2,2.32634787404084,0.01,2.33,0.6535429,1.36647550660671,2.58910785470662,3.14968215327367,0.1333711,1.33,1.6719709,0.95,1.3980283
976,3,0.99,0.1,1,2,2.32634787404084,0.05,2.33,0.7044135,1.36647550660671,2.58910785470662,3.14968215327367,0.133896,1.37,1.776814,1.34,1.9098731
977,3,0.99,0.1,1,3,2.32634787404084,0.01,2.329,2.8181227,1.49364373729531,2.54484247689969,3.15644191189599,27.2115217,0.957,12.2766329,0.956,11.0235218
978,3,0.99,0.1,1,3,2.32634787404084,0.05,2.329,2.2674189,1.49364373729531,2.54484247689969,3.15644191189599,25.0715928,1.366,13.0535023,1.326,12.9481685
979,4,0.99,0.1,1,1,2.32634787404084,0.01,1.5,0.248003,1.68953455416141,NaN,NaN,0.0061141,1.3,0.1288134,1.3,0.1331851
980,4,0.99,0.1,1,1,2.32634787404084,0.05,1.5,0.2353447,1.68953455416141,NaN,NaN,0.0052943,1.4,0.1365104,1.4,0.1390557
981,4,0.99,0.1,1,2,2.32634787404084,0.01,1.64,0.3912682,1.63947648514751,2.68514786602814,NaN,0.1108846,1.19,1.1742242,1.19,1.1701205
982,4,0.99,0.1,1,2,2.32634787404084,0.05,1.64,0.3910059,1.63947648514751,2.68514786602814,NaN,0.0934603,1.27,1.2191766,1.27,1.2185465
983,4,0.99,0.1,1,3,2.32634787404084,0.01,1.583,2.3581361,1.65315701725763,2.26276170175785,3.3936763034063,23.5383775,1.174,11.7340833,0.996,10.391178
984,4,0.99,0.1,1,3,2.32634787404084,0.05,1.583,2.3620137,1.65315701725763,2.26276170175785,3.3936763034063,23.6672035,1.272,12.0217079,1.272,12.0245333
985,5,0.99,0.1,1,1,2.32634787404084,0.01,2.3,0.3631619,1.24553351360979,2.48749787221052,2.80811257909509,0.0071084,1.8,0.1597149,1.8,0.1562426
986,5,0.99,0.1,1,1,2.32634787404084,0.05,2.3,0.3646077,1.24553351360979,2.48749787221052,2.80811257909509,0.0075109,1.8,0.1605903,1.8,0.1610092
987,5,0.99,0.1,1,2,2.32634787404084,0.01,2.32,0.4859214,1.30453193678414,2.41211671004805,2.84371450255402,0.1069777,1.44,1.4259806,1.38,1.4034559
988,5,0.99,0.1,1,2,2.32634787404084,0.05,2.32,0.47479,1.30453193678414,2.41211671004805,2.84371450255402,0.11986,1.76,1.579884,1.76,1.5298842
989,5,0.99,0.1,1,3,2.32634787404084,0.01,2.322,2.626176,1.44752831516801,2.40282867361017,2.79780321962378,24.8870803,1.44,13.2107334,1.367,12.8215952
990,5,0.99,0.1,1,3,2.32634787404084,0.05,2.322,2.6590946,1.44752831516801,2.40282867361017,2.79780321962378,25.547091,1.756,14.917276,1.756,14.6925399
991,6,0.99,0.1,1,1,2.32634787404084,0.01,1.5,0.3650506,2.48185568804206,NaN,NaN,0.006187,1.3,0.1323101,1.3,0.1405368
992,6,0.99,0.1,1,1,2.32634787404084,0.05,1.5,0.3491038,2.48185568804206,NaN,NaN,0.0060533,1.5,0.1453936,1.5,0.1461082
993,6,0.99,0.1,1,2,2.32634787404084,0.01,1.5,0.2549142,1.63832840555425,2.51805153269597,3.22028253359772,0.1335921,0.89,0.9530334,0.87,0.942856
994,6,0.99,0.1,1,2,2.32634787404084,0.05,1.87,0.3846273,1.63832840555425,2.51805153269597,3.22028253359772,0.1159556,0.89,0.9529803,0.89,0.9403251
995,6,0.99,0.1,1,3,2.32634787404084,0.01,1.406,1.9819676,1.71727724001867,2.52115142938129,3.2279484699563,26.0477644,0.89,10.0183212,0.889,9.4581569
996,6,0.99,0.1,1,3,2.32634787404084,0.05,1.406,1.9428225,1.71727724001867,2.52115142938129,3.2279484699563,25.8047617,0.892,9.7129389,0.892,9.5908483
997,7,0.99,0.1,1,1,2.32634787404084,0.01,2.3,0.4829492,1.44879427656537,2.67367438839163,NaN,0.0065404,1.4,0.1870571,1.4,0.1419791
998,7,0.99,0.1,1,1,2.32634787404084,0.05,3.8,0.6692584,1.44879427656537,2.67367438839163,NaN,0.0062431,1.9,0.1695098,2,0.171278
999,7,0.99,0.1,1,2,2.32634787404084,0.01,2.36,0.4910006,1.5260749915371,2.66239115520925,3.65453931197321,0.0894259,1.42,1.4202443,0.99,1.0926475
1000,7,0.99,0.1,1,2,2.32634787404084,0.05,2.36,0.4795175,1.5260749915371,2.66239115520925,3.65453931197321,0.1015771,1.53,1.3941165,1.53,1.3847288
1001,7,0.99,0.1,1,3,2.32634787404084,0.01,2.353,2.4973497,1.63484536960111,2.66528974538376,3.62300624878453,25.6844611,1.414,13.5408347,0.989,10.6140622
1002,7,0.99,0.1,1,3,2.32634787404084,0.05,2.353,2.5144466,1.63484536960111,2.66528974538376,3.62300624878453,25.7409793,1.531,13.7038035,1.531,14.1211981
1003,8,0.99,0.1,1,1,2.32634787404084,0.01,1.5,0.2656439,1.48744541860659,2.46081833549356,NaN,0.0069033,1.2,0.1276808,1.2,0.1274649
1004,8,0.99,0.1,1,1,2.32634787404084,0.05,1.5,0.2592958,1.48744541860659,2.46081833549356,NaN,0.0068189,1.5,0.1435871,1.3,0.1297447
1005,8,0.99,0.1,1,2,2.32634787404084,0.01,2.36,0.4928743,1.57081845620842,2.52885308712421,3.94403837373296,0.1235565,0.97,1.0315132,0.94,1.018905
1006,8,0.99,0.1,1,2,2.32634787404084,0.05,2.36,0.4911405,1.57081845620842,2.52885308712421,3.94403837373296,0.1041151,1.24,1.2068109,0.96,1.029762
1007,8,0.99,0.1,1,3,2.32634787404084,0.01,1.709,2.3546855,1.6185747104042,2.52421886324838,3.93559863114722,24.7501528,0.975,10.5767978,0.942,10.226722
1008,8,0.99,0.1,1,3,2.32634787404084,0.05,1.709,2.3546906,1.6185747104042,2.52421886324838,3.93559863114722,24.8862722,1.237,12.3313561,0.959,10.2936466
1009,9,0.99,0.1,1,1,2.32634787404084,0.01,2.3,0.5143324,1.4127160386719,2.45999438163181,3.77616502294094,0.0082862,1.2,0.1290827,1.2,0.1276743
1010,9,0.99,0.1,1,1,2.32634787404084,0.05,2.3,0.514806,1.4127160386719,2.45999438163181,3.77616502294094,0.0086748,1.7,0.1576331,1.3,0.1369963
1011,9,0.99,0.1,1,2,2.32634787404084,0.01,2.31,0.4868195,1.46977006931205,2.38283497383606,3.79547426600918,0.1181881,1.24,1.1855028,0.94,1.011623
1012,9,0.99,0.1,1,2,2.32634787404084,0.05,2.31,0.5004477,1.46977006931205,2.38283497383606,3.79547426600918,0.1185211,1.24,1.1936241,1.24,1.1839279
1013,9,0.99,0.1,1,3,2.32634787404084,0.01,2.312,2.3138561,1.50976705014962,2.36570348622785,3.74457405484419,25.5328572,0.945,10.5132781,0.936,9.8752249
1014,9,0.99,0.1,1,3,2.32634787404084,0.05,2.312,2.2976706,1.50976705014962,2.36570348622785,3.74457405484419,25.8117517,1.24,12.0093441,1.24,11.8815404
1015,10,0.99,0.1,1,1,2.32634787404084,0.01,1.6,0.3278077,3.11620208693638,3.56924374157514,NaN,0.006017,1.4,0.1421123,1.2,0.1632689
1016,10,0.99,0.1,1,1,2.32634787404084,0.05,1.6,0.2954654,3.11620208693638,3.56924374157514,NaN,0.00649,1.5,0.1562082,1.4,0.1671112
1017,10,0.99,0.1,1,2,2.32634787404084,0.01,1.64,0.4109072,1.6487267796477,3.07590010864899,3.64555218593049,0.1169615,0.94,1.0223058,0.93,1.002421
1018,10,0.99,0.1,1,2,2.32634787404084,0.05,1.64,0.4223493,1.6487267796477,3.07590010864899,3.64555218593049,0.1130327,1.24,1.2317321,0.94,0.9825009
1019,10,0.99,0.1,1,3,2.32634787404084,0.01,1.728,2.3292899,1.68243739355976,2.42588950357702,2.57014464635297,25.3985412,0.941,9.8939754,0.94,10.2665743
1020,10,0.99,0.1,1,3,2.32634787404084,0.05,1.728,2.3248333,1.68243739355976,2.42588950357702,2.57014464635297,25.5383623,0.954,9.9709324,0.941,9.930727
1021,1,0.99,0.1,2,1,2.32634787404084,0.01,2.3,0.36564,1.13535435600518,2.50504588007019,3.66494200684915,0.0082807,1.3,0.1305748,1.2,0.1218054
1022,1,0.99,0.1,2,1,2.32634787404084,0.05,2.3,0.3522829,1.13535435600518,2.50504588007019,3.66494200684915,0.0082452,2,0.1712458,1.3,0.1261538
1023,1,0.99,0.1,2,2,2.32634787404084,0.01,2.33,0.3988613,1.25046758938358,2.444575430518,3.3627669772115,0.1334726,1.29,1.2432111,1.28,1.2413225
1024,1,0.99,0.1,2,2,2.32634787404084,0.05,2.33,0.3904974,1.25046758938358,2.444575430518,3.3627669772115,0.1029799,1.3,1.2557777,1.3,1.2551602
1025,1,0.99,0.1,2,3,2.32634787404084,0.01,2.328,2.4033213,1.3377498032675,2.4267497364365,3.37201109917335,24.5111784,1.284,12.2755302,1.164,11.4549927
1026,1,0.99,0.1,2,3,2.32634787404084,0.05,2.328,2.3160673,1.3377498032675,2.4267497364365,3.37201109917335,24.9976783,1.301,12.5750061,1.286,12.2693949
1027,2,0.99,0.1,2,1,2.32634787404084,0.01,2.3,0.3109191,0.955991599280324,2.47762232200657,3.21731277010152,0.0092451,1.7,0.1505812,1.6,0.1467589
1028,2,0.99,0.1,2,1,2.32634787404084,0.05,2.3,0.303733,0.955991599280324,2.47762232200657,3.21731277010152,0.0095193,7.7,0.363629,7.7,0.3691837
1029,2,0.99,0.1,2,2,2.32634787404084,0.01,2.32,0.3641743,1.0931030744593,2.39791712785266,3.17410649712314,0.1257707,1.61,1.4172427,1.61,1.4191737
1030,2,0.99,0.1,2,2,2.32634787404084,0.05,2.32,0.3736502,1.0931030744593,2.39791712785266,3.17410649712314,0.1214272,1.68,1.4850509,1.61,1.4292062
1031,2,0.99,0.1,2,3,2.32634787404084,0.01,2.325,2.2595279,1.24274224091449,2.39020586374163,3.1536735735959,25.7728377,1.611,14.0167937,1.604,14.3267426
1032,2,0.99,0.1,2,3,2.32634787404084,0.05,2.325,2.2638077,1.24274224091449,2.39020586374163,3.1536735735959,26.0266063,1.666,14.7380499,1.611,14.5033001
1033,3,0.99,0.1,2,1,2.32634787404084,0.01,2.3,0.5123671,1.22710619493407,2.56074526849499,4.04523826708996,0.0088384,1.2,0.1273043,1.2,0.1237843
1034,3,0.99,0.1,2,1,2.32634787404084,0.05,2.3,0.4827383,1.22710619493407,2.56074526849499,4.04523826708996,0.0104119,1.2,0.1262053,1.2,0.1221874
1035,3,0.99,0.1,2,2,2.32634787404084,0.01,2.35,0.5462302,1.32769068930049,2.75436609623732,4.05615491975237,0.1345626,1.18,1.1884363,1.17,1.1812804
1036,3,0.99,0.1,2,2,2.32634787404084,0.05,2.35,0.550595,1.32769068930049,2.75436609623732,4.05615491975237,0.1024184,1.18,1.2045944,1.18,1.1840972
1037,3,0.99,0.1,2,3,2.32634787404084,0.01,2.327,2.4210845,1.4195544693241,2.44810787647476,2.77524887004116,23.9179938,1.177,11.9962333,1.164,11.5117301
1038,3,0.99,0.1,2,3,2.32634787404084,0.05,2.327,2.4005836,1.4195544693241,2.44810787647476,2.77524887004116,23.6673811,1.182,11.7572007,1.177,11.7688748
1039,4,0.99,0.1,2,1,2.32634787404084,0.01,2.3,0.3297317,0.919427895277478,2.81075836569298,3.66021396117303,0.0093752,1.3,0.1302681,1.3,0.1501825
1040,4,0.99,0.1,2,1,2.32634787404084,0.05,2.3,0.2973888,0.919427895277478,2.81075836569298,3.66021396117303,0.0094949,1.9,0.1633807,1.6,0.1732759
1041,4,0.99,0.1,2,2,2.32634787404084,0.01,2.33,0.3680741,1.05995821142056,2.42680878716913,2.90791240823944,0.139121,1.31,1.338585,1.31,1.3101494
1042,4,0.99,0.1,2,2,2.32634787404084,0.05,2.33,0.3692749,1.05995821142056,2.42680878716913,2.90791240823944,0.1291692,1.59,1.4623512,1.51,1.3906271
1043,4,0.99,0.1,2,3,2.32634787404084,0.01,2.333,2.6074015,1.18222230356342,2.40864560694722,2.94186773585548,25.9578739,1.305,12.5479758,1.305,12.5345801
1044,4,0.99,0.1,2,3,2.32634787404084,0.05,2.333,2.5761484,1.18222230356342,2.40864560694722,2.94186773585548,26.093369,1.588,14.3924832,1.313,12.5750714
1045,5,0.99,0.1,2,1,2.32634787404084,0.01,2.3,0.3739676,1.10610546319521,2.81862174743552,5.13534960043518,0.0076817,1.3,0.1288503,1.3,0.1324747
1046,5,0.99,0.1,2,1,2.32634787404084,0.05,2.3,0.3539954,1.10610546319521,2.81862174743552,5.13534960043518,0.0075554,1.6,0.1445372,1.6,0.1410281
1047,5,0.99,0.1,2,2,2.32634787404084,0.01,2.32,0.3767124,1.20336352467343,2.43984076476664,2.74992308398113,0.1426398,1.32,1.2215513,1.32,1.2256324
1048,5,0.99,0.1,2,2,2.32634787404084,0.05,2.32,0.3713643,1.20336352467343,2.43984076476664,2.74992308398113,0.13502,1.34,1.2217056,1.32,1.2339235
1049,5,0.99,0.1,2,3,2.32634787404084,0.01,2.324,2.1067163,1.30880979548572,2.4166896849102,2.77386529463703,24.2873772,1.317,12.4644766,1.317,12.0521607
1050,5,0.99,0.1,2,3,2.32634787404084,0.05,2.324,2.1476345,1.30880979548572,2.4166896849102,2.77386529463703,24.2394609,1.334,12.302537,1.321,12.4676844
1051,6,0.99,0.1,2,1,2.32634787404084,0.01,2.3,0.2856161,1.01582151159947,2.42795974225429,3.93813682128839,0.0085796,1.4,0.1358127,1.3,0.1306804
1052,6,0.99,0.1,2,1,2.32634787404084,0.05,2.3,0.2780222,1.01582151159947,2.42795974225429,3.93813682128839,0.0087126,1.5,0.1452941,1.4,0.1340392
1053,6,0.99,0.1,2,2,2.32634787404084,0.01,2.32,0.3889473,1.13191920146106,2.36632831524803,3.89386259579582,0.129392,1.34,1.247004,1.33,1.2328338
1054,6,0.99,0.1,2,2,2.32634787404084,0.05,2.32,0.3770485,1.13191920146106,2.36632831524803,3.89386259579582,0.1345894,1.36,1.277208,1.34,1.2478436
1055,6,0.99,0.1,2,3,2.32634787404084,0.01,2.318,2.1421154,1.25647053951317,2.35936142123101,3.89327960877689,24.8923623,1.326,12.6357482,1.324,12.3811567
1056,6,0.99,0.1,2,3,2.32634787404084,0.05,2.318,2.3113017,1.25647053951317,2.35936142123101,3.89327960877689,25.0316271,1.358,12.4170477,1.335,12.5208456
1057,7,0.99,0.1,2,1,2.32634787404084,0.01,2.3,0.3676642,1.07046947011111,2.41771265752677,4.65680893166303,0.0106029,1.2,0.1294161,1.2,0.123806
1058,7,0.99,0.1,2,1,2.32634787404084,0.05,2.3,0.3648462,1.07046947011111,2.41771265752677,4.65680893166303,0.0088769,1.2,0.1240803,1.2,0.1238142
1059,7,0.99,0.1,2,2,2.32634787404084,0.01,2.34,0.3878311,1.20671171070482,2.39141796838552,4.66984161000037,0.1076371,1.17,1.1627354,1.17,1.1528833
1060,7,0.99,0.1,2,2,2.32634787404084,0.05,2.34,0.3640426,1.20671171070482,2.39141796838552,4.66984161000037,0.1162877,1.18,1.1599342,1.17,1.157139
1061,7,0.99,0.1,2,3,2.32634787404084,0.01,2.346,2.3740824,1.31604922727253,2.36135697220678,4.66142474460408,25.4396799,1.173,11.5423971,1.173,11.5016217
1062,7,0.99,0.1,2,3,2.32634787404084,0.05,2.346,2.4517933,1.31604922727253,2.36135697220678,4.66142474460408,25.5156057,1.173,11.5711726,1.173,11.4319682
1063,8,0.99,0.1,2,1,2.32634787404084,0.01,2.3,0.4880537,1.23366707242712,2.48445445246386,4.66620613301899,0.0091031,1.3,0.1354527,1.3,0.1298248
1064,8,0.99,0.1,2,1,2.32634787404084,0.05,2.3,0.523732,1.23366707242712,2.48445445246386,4.66620613301899,0.0104122,1.5,0.1457568,1.3,0.1305619
1065,8,0.99,0.1,2,2,2.32634787404084,0.01,2.33,0.4013219,1.33683401667126,2.43341222485254,4.18401034849993,0.1335812,1.24,1.2307093,1.24,1.2128176
1066,8,0.99,0.1,2,2,2.32634787404084,0.05,2.33,0.4049941,1.33683401667126,2.43341222485254,4.18401034849993,0.1170659,1.3,1.2656386,1.3,1.2644178
1067,8,0.99,0.1,2,3,2.32634787404084,0.01,2.328,2.4006908,1.43086999282118,2.41411662082706,4.21125338980806,25.3883159,1.24,12.6540864,1.237,12.0768332
1068,8,0.99,0.1,2,3,2.32634787404084,0.05,2.328,2.4392828,1.43086999282118,2.41411662082706,4.21125338980806,25.3984252,1.296,12.5463837,1.296,12.9341005
1069,9,0.99,0.1,2,1,2.32634787404084,0.01,2.3,0.3678571,1.14173712869314,2.48985057316097,4.76719218400678,0.0107092,1.2,0.1275245,1.2,0.1202293
1070,9,0.99,0.1,2,1,2.32634787404084,0.05,2.3,0.3632299,1.14173712869314,2.48985057316097,4.76719218400678,0.0112614,1.2,0.1344052,1.2,0.1243596
1071,9,0.99,0.1,2,2,2.32634787404084,0.01,2.33,0.3839287,1.26502846672518,2.42906661541848,3.09415312529007,0.1180751,1.17,1.1916291,1.17,1.1851047
1072,9,0.99,0.1,2,2,2.32634787404084,0.05,2.33,0.3761763,1.26502846672518,2.42906661541848,3.09415312529007,0.1072495,1.19,1.2096536,1.19,1.1802991
1073,9,0.99,0.1,2,3,2.32634787404084,0.01,2.336,2.479653,1.41118037459511,2.41815356949448,3.07438696745491,25.994141,1.168,12.088226,1.166,12.2006049
1074,9,0.99,0.1,2,3,2.32634787404084,0.05,2.336,2.4770817,1.41118037459511,2.41815356949448,3.07438696745491,25.8549208,1.185,11.977666,1.168,12.1001773
1075,10,0.99,0.1,2,1,2.32634787404084,0.01,2.3,0.3602462,1.13934840328316,2.45136492864883,3.4981270656231,0.008827,1.2,0.1276129,1.2,0.1265927
1076,10,0.99,0.1,2,1,2.32634787404084,0.05,2.3,0.3690688,1.13934840328316,2.45136492864883,3.4981270656231,0.0094226,1.2,0.1273279,1.2,0.1225935
1077,10,0.99,0.1,2,2,2.32634787404084,0.01,2.32,0.4362942,1.22301213659102,2.40934400559392,3.54530940182797,0.1118823,1.16,1.1805194,1.16,1.1759978
1078,10,0.99,0.1,2,2,2.32634787404084,0.05,2.32,0.4503298,1.22301213659102,2.40934400559392,3.54530940182797,0.1232851,1.16,1.1580942,1.16,1.1682878
1079,10,0.99,0.1,2,3,2.32634787404084,0.01,2.322,2.4708394,1.28421897038554,2.39281946529073,3.55250893404738,25.6786397,1.161,11.678391,1.161,11.7567093
1080,10,0.99,0.1,2,3,2.32634787404084,0.05,2.322,2.4111577,1.28421897038554,2.39281946529073,3.55250893404738,25.2568871,1.161,11.8320076,1.161,11.6138973
1081,1,0.99,0.15,0.5,1,2.32634787404084,0.01,1.3,0.2644508,2.38646767857773,NaN,NaN,0.0048696,1.7,0.1653271,1.7,0.1630152
1082,1,0.99,0.15,0.5,1,2.32634787404084,0.05,1.3,0.2644618,2.38646767857773,NaN,NaN,0.0054113,1.7,0.1653407,1.7,0.1610391
1083,1,0.99,0.15,0.5,2,2.32634787404084,0.01,1.35,0.3817278,1.94036231841014,2.37817179128068,NaN,0.0950419,1.33,1.3328938,1.23,1.2820865
1084,1,0.99,0.15,0.5,2,2.32634787404084,0.05,1.35,0.3818955,1.94036231841014,2.37817179128068,NaN,0.0985846,1.49,1.419064,1.49,1.4323975
1085,1,0.99,0.15,0.5,3,2.32634787404084,0.01,1.195,1.9576618,1.29639919567297,1.93071208631582,2.37239800492866,25.356436,1.305,13.2895623,1.168,12.3791317
1086,1,0.99,0.15,0.5,3,2.32634787404084,0.05,1.195,1.9455182,1.29639919567297,1.93071208631582,2.37239800492866,25.2050293,1.465,14.5464161,1.5,14.2430345
1087,2,0.99,0.15,0.5,1,2.32634787404084,0.01,1.9,0.4414736,NaN,NaN,NaN,0.0029741,1.4,0.1407261,1.4,0.1409826
1088,2,0.99,0.15,0.5,1,2.32634787404084,0.05,1.9,0.4373904,NaN,NaN,NaN,0.00325,1.5,0.1495637,1.4,0.1419149
1089,2,0.99,0.15,0.5,2,2.32634787404084,0.01,1.89,0.50273,1.92196858926142,2.71503664156554,3.20887521515304,0.0820569,1.23,1.2452775,1.23,1.2552003
1090,2,0.99,0.15,0.5,2,2.32634787404084,0.05,1.89,0.5205883,1.92196858926142,2.71503664156554,3.20887521515304,0.0962328,1.27,1.2618018,1.27,1.2544863
1091,2,0.99,0.15,0.5,3,2.32634787404084,0.01,1.559,1.8418602,1.92077591629843,2.71682788938882,3.18177950903504,24.3084021,1.232,12.3977984,1.223,12.6455372
1092,2,0.99,0.15,0.5,3,2.32634787404084,0.05,1.559,1.8326911,1.92077591629843,2.71682788938882,3.18177950903504,24.4649564,1.244,12.7048848,1.244,12.3334969
1093,3,0.99,0.15,0.5,1,2.32634787404084,0.01,1.7,0.2268143,2.5661381654803,NaN,NaN,0.0062295,1.6,0.1636502,1.6,0.1627773
1094,3,0.99,0.15,0.5,1,2.32634787404084,0.05,1.7,0.2316193,2.5661381654803,NaN,NaN,0.0066872,1.7,0.1681465,1.7,0.1698942
1095,3,0.99,0.15,0.5,2,2.32634787404084,0.01,1.74,0.3965091,1.78927875999756,2.3187276918294,3.30406335219271,0.0891759,1.38,1.4950511,1.29,1.4666704
1096,3,0.99,0.15,0.5,2,2.32634787404084,0.05,1.74,0.3799024,1.78927875999756,2.3187276918294,3.30406335219271,0.1215939,1.38,1.5454257,1.38,1.4070355
1097,3,0.99,0.15,0.5,3,2.32634787404084,0.01,1.802,2.3666314,1.79873802765888,2.29745924073823,3.3018337102694,24.0339408,1.166,12.3666388,1.162,12.6891362
1098,3,0.99,0.15,0.5,3,2.32634787404084,0.05,1.802,2.3621659,1.79873802765888,2.29745924073823,3.3018337102694,24.2969079,1.38,13.4991261,1.166,12.3156344
1099,4,0.99,0.15,0.5,1,2.32634787404084,0.01,1.6,0.2310483,2.55243562263439,NaN,NaN,0.0054298,1.8,0.1689729,1.8,0.168793
1100,4,0.99,0.15,0.5,1,2.32634787404084,0.05,1.6,0.2345881,2.55243562263439,NaN,NaN,0.0059963,1.9,0.1762765,1.9,0.1735897
1101,4,0.99,0.15,0.5,2,2.32634787404084,0.01,1.61,0.45516,1.89553494285924,2.61571136287102,2.92371659151207,0.0998292,1.4,1.4714078,1.39,1.4164911
1102,4,0.99,0.15,0.5,2,2.32634787404084,0.05,1.61,0.442795,1.89553494285924,2.61571136287102,2.92371659151207,0.1114366,1.46,1.4609201,1.41,1.3825671
1103,4,0.99,0.15,0.5,3,2.32634787404084,0.01,1.473,1.9596354,1.92539322176335,2.63052658306946,2.96351173802483,24.4812321,1.326,13.2169502,1.326,13.164574
1104,4,0.99,0.15,0.5,3,2.32634787404084,0.05,1.473,1.9193345,1.92539322176335,2.63052658306946,2.96351173802483,24.8073507,1.404,13.8145752,1.399,13.395322
1105,5,0.99,0.15,0.5,1,2.32634787404084,0.01,1.6,0.1883144,2.07112242910252,NaN,NaN,0.0050424,2,0.1845385,2,0.1811859
1106,5,0.99,0.15,0.5,1,2.32634787404084,0.05,1.6,0.1848098,2.07112242910252,NaN,NaN,0.0060272,2,0.1814868,2,0.1800435
1107,5,0.99,0.15,0.5,2,2.32634787404084,0.01,1.64,0.4790445,2.0649058054889,2.83194277167426,3.18194447271493,0.0862376,1.47,1.4725325,1.44,1.4675283
1108,5,0.99,0.15,0.5,2,2.32634787404084,0.05,1.64,0.482225,2.0649058054889,2.83194277167426,3.18194447271493,0.1006741,1.53,1.5169383,1.5,1.4975953
1109,5,0.99,0.15,0.5,3,2.32634787404084,0.01,1.645,1.9103443,1.66526931098413,2.06316289751387,2.79953157638679,25.5355692,1.392,14.6674433,1.382,14.0485487
1110,5,0.99,0.15,0.5,3,2.32634787404084,0.05,1.645,1.9051736,1.66526931098413,2.06316289751387,2.79953157638679,25.6282733,1.392,14.4279958,1.392,14.265825
1111,6,0.99,0.15,0.5,1,2.32634787404084,0.01,1.4,0.2062466,2.45268702471172,NaN,NaN,0.0051823,1.8,0.1700172,1.8,0.1734108
1112,6,0.99,0.15,0.5,1,2.32634787404084,0.05,1.9,0.3308554,2.45268702471172,NaN,NaN,0.0051076,1.8,0.1768533,1.8,0.1711151
1113,6,0.99,0.15,0.5,2,2.32634787404084,0.01,1.46,0.4667093,2.02615814766122,2.43016543609206,NaN,0.0845365,1.42,1.4238231,1.42,1.4064957
1114,6,0.99,0.15,0.5,2,2.32634787404084,0.05,1.46,0.4879269,2.02615814766122,2.43016543609206,NaN,0.0874017,1.52,1.4673405,1.49,1.4589423
1115,6,0.99,0.15,0.5,3,2.32634787404084,0.01,1.464,1.9688936,1.99864675320565,2.3978741831438,NaN,25.488042,1.376,13.8476256,1.376,14.0777217
1116,6,0.99,0.15,0.5,3,2.32634787404084,0.05,1.464,1.9372037,1.99864675320565,2.3978741831438,NaN,25.229602,1.38,14.0046172,1.38,14.2681774
1117,7,0.99,0.15,0.5,1,2.32634787404084,0.01,1.6,0.2276964,2.1586981896836,NaN,NaN,0.0049331,1.6,0.2068486,1.6,0.1573789
1118,7,0.99,0.15,0.5,1,2.32634787404084,0.05,1.9,0.4401572,2.1586981896836,NaN,NaN,0.0072015,1.6,0.1619562,1.6,0.1549752
1119,7,0.99,0.15,0.5,2,2.32634787404084,0.01,1.59,0.3985835,2.20816485688211,2.48850455851958,NaN,0.1122992,1.31,1.3622724,1.31,1.3501093
1120,7,0.99,0.15,0.5,2,2.32634787404084,0.05,1.98,0.5990373,2.20816485688211,2.48850455851958,NaN,0.116869,1.33,1.3778246,1.33,1.3687889
1121,7,0.99,0.15,0.5,3,2.32634787404084,0.01,1.194,2.0422266,1.90268124130706,2.20932527444772,2.45695342422771,25.000258,1.309,13.7691814,1.3,13.5057033
1122,7,0.99,0.15,0.5,3,2.32634787404084,0.05,1.194,2.1388189,1.90268124130706,2.20932527444772,2.45695342422771,24.9376906,1.332,13.5530238,1.309,13.7832448
1123,8,0.99,0.15,0.5,1,2.32634787404084,0.01,1.5,0.2365571,1.60601150451045,NaN,NaN,0.0060904,1.5,0.154212,1.5,0.1560724
1124,8,0.99,0.15,0.5,1,2.32634787404084,0.05,1.5,0.2329526,1.60601150451045,NaN,NaN,0.0059217,1.6,0.1586551,1.5,0.1500987
1125,8,0.99,0.15,0.5,2,2.32634787404084,0.01,1.51,0.3641398,1.60838798181857,3.0424549508816,NaN,0.0936278,1.23,1.3117858,1.23,1.3177364
1126,8,0.99,0.15,0.5,2,2.32634787404084,0.05,1.51,0.3685641,1.60838798181857,3.0424549508816,NaN,0.0938662,1.39,1.4009191,1.23,1.3033494
1127,8,0.99,0.15,0.5,3,2.32634787404084,0.01,1.451,1.9014495,1.64586415504605,1.72616953602693,2.36648993805455,24.3982339,1.219,12.8490936,1.219,13.1645667
1128,8,0.99,0.15,0.5,3,2.32634787404084,0.05,1.93,2.1303915,1.64586415504605,1.72616953602693,2.36648993805455,24.5002426,1.222,12.8964231,1.219,12.8150617
1129,9,0.99,0.15,0.5,1,2.32634787404084,0.01,1.7,0.2477725,1.51152930099136,2.398629925341,NaN,0.0057829,1.6,0.1639532,1.6,0.1608218
1130,9,0.99,0.15,0.5,1,2.32634787404084,0.05,1.7,0.2355863,1.51152930099136,2.398629925341,NaN,0.0063389,1.9,0.1739617,1.6,0.1760576
1131,9,0.99,0.15,0.5,2,2.32634787404084,0.01,1.67,0.3620739,1.62248804576719,2.31568985173104,2.87521069403344,0.1211381,1.41,1.3614223,1.41,1.3996615
1132,9,0.99,0.15,0.5,2,2.32634787404084,0.05,1.67,0.3602644,1.62248804576719,2.31568985173104,2.87521069403344,0.1107616,1.42,1.3622338,1.42,1.3863256
1133,9,0.99,0.15,0.5,3,2.32634787404084,0.01,1.399,2.0367338,1.68455679208899,2.31466206535499,2.90699124129108,26.854335,1.363,13.2824738,1.363,13.2826012
1134,9,0.99,0.15,0.5,3,2.32634787404084,0.05,1.399,2.0895807,1.68455679208899,2.31466206535499,2.90699124129108,26.6857985,1.421,14.0682491,1.408,13.5253883
1135,10,0.99,0.15,0.5,1,2.32634787404084,0.01,1.8,0.4596778,1.96713809450765,NaN,NaN,0.0068547,1.4,0.138919,1.4,0.1370273
1136,10,0.99,0.15,0.5,1,2.32634787404084,0.05,1.8,0.4405592,1.96713809450765,NaN,NaN,0.0061804,1.5,0.1442892,1.4,0.1485768
1137,10,0.99,0.15,0.5,2,2.32634787404084,0.01,1.9,0.5131551,1.92301527624532,2.28500177702058,3.41798281679785,0.0972687,1.34,1.2858466,1.41,1.3656097
1138,10,0.99,0.15,0.5,2,2.32634787404084,0.05,1.9,0.5280378,1.92301527624532,2.28500177702058,3.41798281679785,0.1179953,1.42,1.3214529,1.42,1.3419986
1139,10,0.99,0.15,0.5,3,2.32634787404084,0.01,1.397,1.9557182,1.90553977947453,2.28479146731625,3.47752751699538,24.8719322,1.407,13.3006334,1.407,12.9757571
1140,10,0.99,0.15,0.5,3,2.32634787404084,0.05,1.869,2.3288845,1.90553977947453,2.28479146731625,3.47752751699538,25.1704378,1.423,13.262847,1.426,13.5311068
1141,1,0.99,0.15,1,1,2.32634787404084,0.01,2.3,0.4532588,1.44342709555681,2.42874010600374,NaN,0.0075018,1.3,0.1325446,1.2,0.1283667
1142,1,0.99,0.15,1,1,2.32634787404084,0.05,2.3,0.4557177,1.44342709555681,2.42874010600374,NaN,0.0077406,1.3,0.1308011,1.3,0.1299004
1143,1,0.99,0.15,1,2,2.32634787404084,0.01,2.32,0.5004586,1.53897521301837,2.38987069124562,NaN,0.0998626,0.94,0.9809892,0.93,0.9846078
1144,1,0.99,0.15,1,2,2.32634787404084,0.05,2.32,0.5063528,1.53897521301837,2.38987069124562,NaN,0.1141367,1.32,1.2631259,1.31,1.2312213
1145,1,0.99,0.15,1,3,2.32634787404084,0.01,1.705,2.3999465,1.62179339921971,2.37854363102354,NaN,24.2349502,0.906,9.9599283,0.906,9.7164292
1146,1,0.99,0.15,1,3,2.32634787404084,0.05,1.705,2.3502718,1.62179339921971,2.37854363102354,NaN,24.0982305,1.323,12.3117598,1.295,12.1878951
1147,2,0.99,0.15,1,1,2.32634787404084,0.01,2.4,0.3877496,1.13188049834211,2.41916308604844,NaN,0.0058733,1.5,0.1463633,1.4,0.1501907
1148,2,0.99,0.15,1,1,2.32634787404084,0.05,2.4,0.3951659,1.13188049834211,2.41916308604844,NaN,0.0063462,1.5,0.1515927,1.5,0.1429175
1149,2,0.99,0.15,1,2,2.32634787404084,0.01,2.42,0.4940746,1.25622361109171,2.36175599827956,3.52390397046183,0.0981901,1.37,1.3542142,0.98,1.0701999
1150,2,0.99,0.15,1,2,2.32634787404084,0.05,2.42,0.4828104,1.25622361109171,2.36175599827956,3.52390397046183,0.0953646,1.37,1.291737,1.37,1.2778348
1151,2,0.99,0.15,1,3,2.32634787404084,0.01,2.42,2.4625963,1.33220325697254,2.35424829316909,3.48229949795965,24.3785649,1.24,11.8248315,0.977,10.2582589
1152,2,0.99,0.15,1,3,2.32634787404084,0.05,2.42,2.4399144,1.33220325697254,2.35424829316909,3.48229949795965,24.4797705,1.37,12.9328814,1.37,12.4840549
1153,3,0.99,0.15,1,1,2.32634787404084,0.01,1.5,0.3210726,1.54306703346716,NaN,NaN,0.0061146,1.2,0.1238396,1.2,0.1246737
1154,3,0.99,0.15,1,1,2.32634787404084,0.05,1.5,0.3178473,1.54306703346716,NaN,NaN,0.0059579,1.6,0.1475428,1.6,0.1501044
1155,3,0.99,0.15,1,2,2.32634787404084,0.01,1.58,0.3684675,1.52036847966511,2.82437541685319,3.63528768479416,0.0996538,1.22,1.1901173,1.22,1.1877067
1156,3,0.99,0.15,1,2,2.32634787404084,0.05,1.58,0.3667271,1.52036847966511,2.82437541685319,3.63528768479416,0.0958663,1.24,1.2356667,1.35,1.2903681
1157,3,0.99,0.15,1,3,2.32634787404084,0.01,1.553,1.8065151,1.55803836547343,2.82148887356631,3.63051102324457,23.7337889,1.198,11.8851621,1.198,11.6442551
1158,3,0.99,0.15,1,3,2.32634787404084,0.05,1.553,1.8125496,1.55803836547343,2.82148887356631,3.63051102324457,23.9240604,1.237,12.1891539,1.237,11.8654793
1159,4,0.99,0.15,1,1,2.32634787404084,0.01,2.3,0.3714659,1.19865148110807,3.3114712411274,3.72211152791725,0.0077874,1.6,0.1450666,1.3,0.1292436
1160,4,0.99,0.15,1,1,2.32634787404084,0.05,2.3,0.3616413,1.19865148110807,3.3114712411274,3.72211152791725,0.0076435,1.8,0.1548121,1.7,0.1563558
1161,4,0.99,0.15,1,2,2.32634787404084,0.01,2.35,0.3865444,1.33244141574927,2.47267527265882,3.26863457106118,0.1332377,1.25,1.262263,0.96,1.1056207
1162,4,0.99,0.15,1,2,2.32634787404084,0.05,2.35,0.4175086,1.33244141574927,2.47267527265882,3.26863457106118,0.1101651,1.74,1.5625237,1.74,1.5832683
1163,4,0.99,0.15,1,3,2.32634787404084,0.01,2.349,2.742878,1.45540948061027,2.4453929619023,3.27426585391952,24.9895715,1.252,11.8141039,0.962,10.1888016
1164,4,0.99,0.15,1,3,2.32634787404084,0.05,2.349,2.739978,1.45540948061027,2.4453929619023,3.27426585391952,25.1264847,1.735,14.2425028,1.735,14.2999257
1165,5,0.99,0.15,1,1,2.32634787404084,0.01,2.3,0.5082614,1.27681100615547,3.98479427060316,NaN,0.0071661,1.3,0.167983,1.2,0.1310489
1166,5,0.99,0.15,1,1,2.32634787404084,0.05,2.3,0.4902343,1.27681100615547,3.98479427060316,NaN,0.0071122,1.5,0.1474747,1.3,0.1526316
1167,5,0.99,0.15,1,2,2.32634787404084,0.01,2.31,0.4228302,1.44568514710536,2.33450304423362,4.03388641041246,0.1157068,0.9,1.012049,0.89,1.0282658
1168,5,0.99,0.15,1,2,2.32634787404084,0.05,2.31,0.4151701,1.44568514710536,2.33450304423362,4.03388641041246,0.1262434,1.25,1.1907107,0.9,0.9639116
1169,5,0.99,0.15,1,3,2.32634787404084,0.01,2.282,2.5686813,1.5575072224965,2.31644975802063,4.02976743471213,24.8972107,0.903,9.6864733,0.895,9.5649616
1170,5,0.99,0.15,1,3,2.32634787404084,0.05,2.282,2.5814748,1.5575072224965,2.31644975802063,4.02976743471213,25.1391116,0.918,10.1614899,0.903,9.6073793
1171,6,0.99,0.15,1,1,2.32634787404084,0.01,2.3,0.4007355,1.29515831271189,3.86178296711118,NaN,0.0065871,1.6,0.1486033,1.6,0.1454756
1172,6,0.99,0.15,1,1,2.32634787404084,0.05,2.3,0.3966135,1.29515831271189,3.86178296711118,NaN,0.0067044,1.7,0.1547272,1.7,0.1480866
1173,6,0.99,0.15,1,2,2.32634787404084,0.01,2.32,0.3607595,1.36278678974835,2.42835451645663,3.31864335429311,0.1183419,1.54,1.3638781,0.93,0.9785353
1174,6,0.99,0.15,1,2,2.32634787404084,0.05,2.32,0.3752948,1.36278678974835,2.42835451645663,3.31864335429311,0.1127957,1.57,1.4178623,1.57,1.3708574
1175,6,0.99,0.15,1,3,2.32634787404084,0.01,2.321,2.4287503,1.49150281501751,2.38827244842421,3.30550981413342,24.8752424,1.536,13.3814593,0.928,10.4130707
1176,6,0.99,0.15,1,3,2.32634787404084,0.05,2.321,2.4028637,1.49150281501751,2.38827244842421,3.30550981413342,24.5247126,1.558,13.9826141,1.558,13.5032886
1177,7,0.99,0.15,1,1,2.32634787404084,0.01,1.4,0.263751,1.56010785650156,3.16555416221884,3.76697847617718,0.0077,1.4,0.1455037,1.4,0.1373339
1178,7,0.99,0.15,1,1,2.32634787404084,0.05,1.4,0.2660931,1.56010785650156,3.16555416221884,3.76697847617718,0.0076402,1.5,0.1417649,1.4,0.1571562
1179,7,0.99,0.15,1,2,2.32634787404084,0.01,1.84,0.3836726,1.62131733436821,2.42713470590828,3.07082530258211,0.1005622,0.96,1.0192556,0.95,1.0963389
1180,7,0.99,0.15,1,2,2.32634787404084,0.05,1.84,0.4589606,1.62131733436821,2.42713470590828,3.07082530258211,0.1255262,1.39,1.3952377,1.39,1.3774101
1181,7,0.99,0.15,1,3,2.32634787404084,0.01,1.868,2.3230509,1.71112534257865,2.41441996628194,3.0849062856092,23.8750563,0.964,10.2678736,0.961,10.5400635
1182,7,0.99,0.15,1,3,2.32634787404084,0.05,1.868,2.2559621,1.71112534257865,2.41441996628194,3.0849062856092,24.367617,1.388,12.8493294,1.388,12.8794588
1183,8,0.99,0.15,1,1,2.32634787404084,0.01,1.5,0.2998549,3.57035771893282,NaN,NaN,0.0070563,1.2,0.1239959,1.2,0.1221415
1184,8,0.99,0.15,1,1,2.32634787404084,0.05,1.8,0.505896,3.57035771893282,NaN,NaN,0.0062375,1.3,0.1275567,1.2,0.1216002
1185,8,0.99,0.15,1,2,2.32634787404084,0.01,1.51,0.2728825,1.73786501650722,2.7552158558098,3.83237980002103,0.0913144,0.98,1.0212557,0.98,1.0161378
1186,8,0.99,0.15,1,2,2.32634787404084,0.05,1.84,0.3927137,1.73786501650722,2.7552158558098,3.83237980002103,0.1021571,1.23,1.1989521,1.23,1.1853814
1187,8,0.99,0.15,1,3,2.32634787404084,0.01,1.316,1.9603602,1.7699801325281,2.36045151423839,2.77462973631036,25.2985064,0.978,10.1153016,0.978,10.0602943
1188,8,0.99,0.15,1,3,2.32634787404084,0.05,1.316,1.9327047,1.7699801325281,2.36045151423839,2.77462973631036,25.0775572,1.226,11.6432648,1.226,12.1381553
1189,9,0.99,0.15,1,1,2.32634787404084,0.01,1.4,0.3006515,1.36441862947847,2.48125868321008,2.85148070121305,0.0076591,1.4,0.1376812,1.4,0.1475842
1190,9,0.99,0.15,1,1,2.32634787404084,0.05,1.4,0.2892059,1.36441862947847,2.48125868321008,2.85148070121305,0.0070611,1.4,0.1374121,1.4,0.1383035
1191,9,0.99,0.15,1,2,2.32634787404084,0.01,2.34,0.4788402,1.43284575576182,2.4074638660591,3.00867513675135,0.1034286,1.37,1.2716844,0.94,0.9927176
1192,9,0.99,0.15,1,2,2.32634787404084,0.05,3.11,0.7020874,1.43284575576182,2.4074638660591,3.00867513675135,0.1231204,1.43,1.315075,1.43,1.3073666
1193,9,0.99,0.15,1,3,2.32634787404084,0.01,1.452,1.9539719,1.48894304214059,2.38656433333717,3.02767828423929,24.4867473,0.948,10.1758147,0.94,9.9538348
1194,9,0.99,0.15,1,3,2.32634787404084,0.05,1.452,2.0689596,1.48894304214059,2.38656433333717,3.02767828423929,24.855766,1.428,12.8347247,1.374,12.8287699
1195,10,0.99,0.15,1,1,2.32634787404084,0.01,1.4,0.3314024,1.53654009910805,2.45005548240975,3.29852569879125,0.0071894,1.4,0.1384024,1.4,0.137353
1196,10,0.99,0.15,1,1,2.32634787404084,0.05,1.4,0.3430877,1.53654009910805,2.45005548240975,3.29852569879125,0.0086156,1.4,0.1372113,1.4,0.1372918
1197,10,0.99,0.15,1,2,2.32634787404084,0.01,1.44,0.2709026,1.58663528541016,2.3988473144221,3.12344482290509,0.1028369,0.93,0.9999995,0.92,0.997666
1198,10,0.99,0.15,1,2,2.32634787404084,0.05,1.44,0.2757319,1.58663528541016,2.3988473144221,3.12344482290509,0.1131655,0.95,1.0028066,0.93,0.9970155
1199,10,0.99,0.15,1,3,2.32634787404084,0.01,1.507,2.4839076,1.7219023778048,2.3834399409052,3.13351951752645,25.1732296,0.927,9.7793086,0.921,9.7167217
1200,10,0.99,0.15,1,3,2.32634787404084,0.05,1.507,2.5389935,1.7219023778048,2.3834399409052,3.13351951752645,25.0748547,0.952,10.2379086,0.927,9.8160113
1201,1,0.99,0.15,2,1,2.32634787404084,0.01,2.3,0.4776279,1.28967503705773,2.42981302672816,4.24774443447646,0.0093372,1.5,0.1425958,1.6,0.1471911
1202,1,0.99,0.15,2,1,2.32634787404084,0.05,2.3,0.4746292,1.28967503705773,2.42981302672816,4.24774443447646,0.008427,1.8,0.1582766,1.8,0.1576402
1203,1,0.99,0.15,2,2,2.32634787404084,0.01,2.32,0.4048888,1.36765642463074,2.38965093025238,4.28043101142687,0.1411141,1.17,1.1953091,1.16,1.1792658
1204,1,0.99,0.15,2,2,2.32634787404084,0.05,2.32,0.4535472,1.36765642463074,2.38965093025238,4.28043101142687,0.1114904,1.77,1.5548326,1.77,1.5493074
1205,1,0.99,0.15,2,3,2.32634787404084,0.01,2.322,2.3869635,1.44763616473803,2.37508535342704,4.32336428263915,25.0815806,1.166,12.0148371,1.161,11.6274277
1206,1,0.99,0.15,2,3,2.32634787404084,0.05,2.322,2.4011422,1.44763616473803,2.37508535342704,4.32336428263915,25.1840643,1.592,14.416889,1.739,15.2836913
1207,2,0.99,0.15,2,1,2.32634787404084,0.01,2.3,0.5102111,1.33061062053815,2.47245757633333,5.18225437981276,0.0083355,1.2,0.1234618,1.2,0.1265669
1208,2,0.99,0.15,2,1,2.32634787404084,0.05,2.7,0.7279994,1.33061062053815,2.47245757633333,5.18225437981276,0.0121774,1.9,0.1928123,2,0.167975
1209,2,0.99,0.15,2,2,2.32634787404084,0.01,2.72,0.6093628,1.38020141464979,2.44479809883772,5.20835043342793,0.1130065,1.16,1.1784094,1.16,1.1783899
1210,2,0.99,0.15,2,2,2.32634787404084,0.05,2.72,0.6005975,1.38020141464979,2.44479809883772,5.20835043342793,0.1362786,1.17,1.1979885,1.16,1.1847791
1211,2,0.99,0.15,2,3,2.32634787404084,0.01,2.716,2.6715854,1.4574644702294,2.44281226781305,5.22291099576012,25.16221,1.163,12.1581425,1.163,11.7713111
1212,2,0.99,0.15,2,3,2.32634787404084,0.05,2.716,2.8749241,1.4574644702294,2.44281226781305,5.22291099576012,25.2833799,1.164,11.8729246,1.163,12.0457596
1213,3,0.99,0.15,2,1,2.32634787404084,0.01,1.4,0.3684318,1.49952435431772,3.07943728608643,3.66131297089425,0.0086443,1.3,0.1389411,1.2,0.1288305
1214,3,0.99,0.15,2,1,2.32634787404084,0.05,1.4,0.3630496,1.49952435431772,3.07943728608643,3.66131297089425,0.0084284,1.4,0.1439485,1.3,0.1355954
1215,3,0.99,0.15,2,2,2.32634787404084,0.01,1.42,0.2706071,1.49928616718546,3.02421524730614,4.51239724110584,0.0961253,1.23,1.275753,1.23,1.2744707
1216,3,0.99,0.15,2,2,2.32634787404084,0.05,1.42,0.2691478,1.49928616718546,3.02421524730614,4.51239724110584,0.1158552,1.33,1.3544564,1.33,1.3348386
1217,3,0.99,0.15,2,3,2.32634787404084,0.01,1.584,2.2569478,1.54738664366721,2.36400916508976,3.02735760691104,25.3433108,1.226,12.6491458,1.226,12.6089988
1218,3,0.99,0.15,2,3,2.32634787404084,0.05,1.584,2.3958882,1.54738664366721,2.36400916508976,3.02735760691104,25.536903,1.331,13.2096234,1.266,12.8348526
1219,4,0.99,0.15,2,1,2.32634787404084,0.01,2.3,0.5571419,1.1022886149561,3.18983640891711,5.16565844253885,0.0098307,1.7,0.1605942,1.7,0.1528041
1220,4,0.99,0.15,2,1,2.32634787404084,0.05,2.3,0.5464256,1.1022886149561,3.18983640891711,5.16565844253885,0.0088691,1.7,0.1689593,1.7,0.1535437
1221,4,0.99,0.15,2,2,2.32634787404084,0.01,2.32,0.3895671,1.21624702155981,3.16661304185127,5.19735176218236,0.1166007,1.16,1.1940214,1.16,1.1859856
1222,4,0.99,0.15,2,2,2.32634787404084,0.05,2.32,0.3752574,1.21624702155981,3.16661304185127,5.19735176218236,0.1229079,1.68,1.5239351,1.68,1.5065612
1223,4,0.99,0.15,2,3,2.32634787404084,0.01,2.325,2.6072117,1.34926608313339,2.45897560646196,3.17226821536064,25.3710025,1.161,11.9851888,1.16,11.7503957
1224,4,0.99,0.15,2,3,2.32634787404084,0.05,2.325,2.5787441,1.34926608313339,2.45897560646196,3.17226821536064,25.0137064,1.673,15.3582908,1.67,14.6602511
1225,5,0.99,0.15,2,1,2.32634787404084,0.01,2.3,0.5567304,1.19207321472431,2.51789864322043,4.5045736978327,0.0106852,1.4,0.1416644,1.3,0.1327264
1226,5,0.99,0.15,2,1,2.32634787404084,0.05,2.3,0.555942,1.19207321472431,2.51789864322043,4.5045736978327,0.0104252,1.4,0.1474344,1.4,0.1487821
1227,5,0.99,0.15,2,2,2.32634787404084,0.01,2.31,0.4645007,1.29334109955036,2.4653153735984,3.05425052466411,0.1180391,1.39,1.4302611,1.33,1.3111401
1228,5,0.99,0.15,2,2,2.32634787404084,0.05,2.31,0.3675444,1.29334109955036,2.4653153735984,3.05425052466411,0.1314203,1.42,1.3782942,1.41,1.3620784
1229,5,0.99,0.15,2,3,2.32634787404084,0.01,2.315,2.3694068,1.39453320836133,2.44792121902258,3.0903736447878,24.7690349,1.392,13.8296706,1.329,13.1467925
1230,5,0.99,0.15,2,3,2.32634787404084,0.05,2.315,2.3578426,1.39453320836133,2.44792121902258,3.0903736447878,24.4853693,1.419,14.0685528,1.406,13.8594547
1231,6,0.99,0.15,2,1,2.32634787404084,0.01,2.3,0.3726201,0.955004319123924,2.4295508350292,3.43525596389158,0.009525,1.3,0.1349903,1.3,0.1359662
1232,6,0.99,0.15,2,1,2.32634787404084,0.05,2.3,0.3419156,0.955004319123924,2.4295508350292,3.43525596389158,0.0098811,1.3,0.1280423,1.3,0.1302324
1233,6,0.99,0.15,2,2,2.32634787404084,0.01,2.31,0.3667575,1.06464513380638,2.37626229227594,2.76103527482425,0.1361229,1.28,1.2562726,1.28,1.2520288
1234,6,0.99,0.15,2,2,2.32634787404084,0.05,2.31,0.3805947,1.06464513380638,2.37626229227594,2.76103527482425,0.1294588,1.29,1.2786842,1.29,1.2580603
1235,6,0.99,0.15,2,3,2.32634787404084,0.01,2.31,2.4304858,1.17048200944021,2.36746092147938,2.80562167205681,24.4905671,1.281,12.8269023,1.278,12.4761049
1236,6,0.99,0.15,2,3,2.32634787404084,0.05,2.31,2.5429848,1.17048200944021,2.36746092147938,2.80562167205681,24.0959676,1.292,12.6819779,1.287,12.775259
1237,7,0.99,0.15,2,1,2.32634787404084,0.01,2.4,0.3388841,1.08596922458678,3.6892755404012,4.58918005941999,0.0088359,1.5,0.1576819,1.2,0.1220971
1238,7,0.99,0.15,2,1,2.32634787404084,0.05,3.8,0.4959826,1.08596922458678,3.6892755404012,4.58918005941999,0.0083434,1.9,0.1631197,1.9,0.162141
1239,7,0.99,0.15,2,2,2.32634787404084,0.01,2.33,0.3413791,1.21903436993429,3.65701246044619,NaN,0.124424,1.34,1.2513535,0.9,0.9502944
1240,7,0.99,0.15,2,2,2.32634787404084,0.05,3.7,0.547557,1.21903436993429,3.65701246044619,NaN,0.146899,1.85,1.5774936,1.84,1.5558222
1241,7,0.99,0.15,2,3,2.32634787404084,0.01,2.326,2.6783661,1.33528377861392,3.66427128966742,NaN,24.8917735,0.885,9.4255108,0.869,9.2904703
1242,7,0.99,0.15,2,3,2.32634787404084,0.05,2.326,2.6673383,1.33528377861392,3.66427128966742,NaN,25.1437658,1.851,15.4308209,1.841,14.8605437
1243,8,0.99,0.15,2,1,2.32634787404084,0.01,2.3,0.3970756,1.15659207526195,2.43489560922068,5.93267435246615,0.010192,1.2,0.1234097,1.2,0.121144
1244,8,0.99,0.15,2,1,2.32634787404084,0.05,2.3,0.36042,1.15659207526195,2.43489560922068,5.93267435246615,0.009398,1.6,0.1742499,1.6,0.1517611
1245,8,0.99,0.15,2,2,2.32634787404084,0.01,2.32,0.3880296,1.24310486295481,2.37348789091569,2.81906984005696,0.141723,1.16,1.1789449,1.16,1.1784795
1246,8,0.99,0.15,2,2,2.32634787404084,0.05,2.32,0.3654599,1.24310486295481,2.37348789091569,2.81906984005696,0.1462989,1.22,1.2401291,1.21,1.213913
1247,8,0.99,0.15,2,3,2.32634787404084,0.01,2.326,2.4422132,1.33960659692803,2.35959982035105,2.89059126948683,24.7466295,1.163,12.1555799,1.163,11.7237374
1248,8,0.99,0.15,2,3,2.32634787404084,0.05,2.326,2.4783077,1.33960659692803,2.35959982035105,2.89059126948683,24.7834915,1.213,12.0728183,1.163,12.1094579
1249,9,0.99,0.15,2,1,2.32634787404084,0.01,2.4,0.2680154,0.874859636178578,3.08154964392344,4.07426249902079,0.0104991,1.5,0.1452706,1.5,0.1427158
1250,9,0.99,0.15,2,1,2.32634787404084,0.05,2.4,0.2670635,0.874859636178578,3.08154964392344,4.07426249902079,0.0096909,2.1,0.1855271,2,0.1718534
1251,9,0.99,0.15,2,2,2.32634787404084,0.01,2.43,0.3669326,1.01718494666027,2.56608302780434,2.94394992933075,0.126831,1.49,1.4013649,1.48,1.3742296
1252,9,0.99,0.15,2,2,2.32634787404084,0.05,2.43,0.3670954,1.01718494666027,2.56608302780434,2.94394992933075,0.1233444,1.98,1.7081129,1.97,1.6842959
1253,9,0.99,0.15,2,3,2.32634787404084,0.01,2.434,2.1767323,1.1734328729415,2.56616984059353,2.93735178803413,25.5210512,1.491,13.8801685,1.477,13.9688279
1254,9,0.99,0.15,2,3,2.32634787404084,0.05,2.434,2.1993523,1.1734328729415,2.56616984059353,2.93735178803413,24.8492761,1.969,16.1516561,1.969,15.8325127
1255,10,0.99,0.15,2,1,2.32634787404084,0.01,2.3,0.3639086,1.07385206563078,2.58378613727005,3.46934448264518,0.0093723,1.3,0.1344156,1.2,0.1308342
1256,10,0.99,0.15,2,1,2.32634787404084,0.05,2.3,0.4547449,1.07385206563078,2.58378613727005,3.46934448264518,0.0126302,1.9,0.1714149,1.3,0.1369158
1257,10,0.99,0.15,2,2,2.32634787404084,0.01,2.33,0.359324,1.20955695350408,2.48390559837616,3.42312458877916,0.1418122,1.17,1.2454199,1.17,1.2555382
1258,10,0.99,0.15,2,2,2.32634787404084,0.05,2.33,0.3729626,1.20955695350408,2.48390559837616,3.42312458877916,0.143476,1.35,1.3624381,1.34,1.2772488
1259,10,0.99,0.15,2,3,2.32634787404084,0.01,2.336,2.5491638,1.3256174038625,2.45195709378499,3.44582206691121,25.0813339,1.168,11.766704,1.167,11.8185928
1260,10,0.99,0.15,2,3,2.32634787404084,0.05,2.336,2.5695444,1.3256174038625,2.45195709378499,3.44582206691121,25.8069924,1.35,12.815687,1.325,12.6240056
1261,1,0.995,-0.15,0.5,1,2.5758293035489,0.01,1.9,0.196495,2.10730507313828,NaN,NaN,0.0045477,3.3,0.2925551,3.3,0.2686601
1262,1,0.995,-0.15,0.5,1,2.5758293035489,0.05,1.9,0.2258613,2.10730507313828,NaN,NaN,0.0052284,3.3,0.2746756,3.3,0.283986
1263,1,0.995,-0.15,0.5,2,2.5758293035489,0.01,1.98,0.5234782,2.13272559393441,2.73000980584547,NaN,0.0939191,1.97,1.9260223,1.97,1.821992
1264,1,0.995,-0.15,0.5,2,2.5758293035489,0.05,1.98,0.4908817,2.13272559393441,2.73000980584547,NaN,0.0994263,1.97,1.8536048,1.97,1.8711985
1265,1,0.995,-0.15,0.5,3,2.5758293035489,0.01,1.281,1.9341841,1.22201123417534,1.99890382041405,2.21701501658443,24.5024338,1.952,16.9446912,1.952,17.2382881
1266,1,0.995,-0.15,0.5,3,2.5758293035489,0.05,1.281,1.9430561,1.22201123417534,1.99890382041405,2.21701501658443,23.9999321,1.952,16.884478,1.952,16.9471519
1267,2,0.995,-0.15,0.5,1,2.5758293035489,0.01,1.3,0.3059842,1.56515665708016,1.98682132208473,NaN,0.0058561,3.4,0.25982,3.4,0.2572922
1268,2,0.995,-0.15,0.5,1,2.5758293035489,0.05,1.3,0.2942297,1.56515665708016,1.98682132208473,NaN,0.0053918,3.4,0.2630176,3.4,0.2849368
1269,2,0.995,-0.15,0.5,2,2.5758293035489,0.01,1.3,0.532643,1.59422223357943,1.96872863102427,2.65193154344482,0.08248,3.38,2.3132757,3.38,2.2350763
1270,2,0.995,-0.15,0.5,2,2.5758293035489,0.05,1.3,0.4915546,1.59422223357943,1.96872863102427,2.65193154344482,0.0728796,3.38,2.2010816,3.38,2.2042266
1271,2,0.995,-0.15,0.5,3,2.5758293035489,0.01,0.951,1.2735275,1.28300728957896,1.59749208570686,1.98189213569105,24.1884818,3.379,17.6355917,3.379,17.8370272
1272,2,0.995,-0.15,0.5,3,2.5758293035489,0.05,1.283,1.6648927,1.28300728957896,1.59749208570686,1.98189213569105,24.450083,3.379,17.5323488,3.379,17.4822857
1273,3,0.995,-0.15,0.5,1,2.5758293035489,0.01,1.5,0.2091584,1.65420951878477,NaN,NaN,0.0051746,3.5,0.2804598,3.5,0.2612858
1274,3,0.995,-0.15,0.5,1,2.5758293035489,0.05,1.5,0.2296506,1.65420951878477,NaN,NaN,0.00747,3.5,0.2624151,3.5,0.253717
1275,3,0.995,-0.15,0.5,2,2.5758293035489,0.01,1.58,0.4965197,1.67663103884304,NaN,NaN,0.0959611,3.48,2.2939105,3.48,2.280116
1276,3,0.995,-0.15,0.5,2,2.5758293035489,0.05,1.58,0.4950679,1.67663103884304,NaN,NaN,0.0848292,3.48,2.2034455,3.48,2.2253208
1277,3,0.995,-0.15,0.5,3,2.5758293035489,0.01,1.586,1.9431939,1.72379753357457,NaN,NaN,25.6159801,3.476,18.1088752,3.476,18.315666
1278,3,0.995,-0.15,0.5,3,2.5758293035489,0.05,1.586,1.9353942,1.72379753357457,NaN,NaN,25.2319491,3.476,17.988611,3.476,18.4548161
1279,4,0.995,-0.15,0.5,1,2.5758293035489,0.01,1.1,0.0947118,1.65375769688827,NaN,NaN,0.0053803,3.4,0.2593826,3.4,0.2671767
1280,4,0.995,-0.15,0.5,1,2.5758293035489,0.05,2.5,0.4297377,1.65375769688827,NaN,NaN,0.0056828,3.4,0.2641977,3.4,0.2666626
1281,4,0.995,-0.15,0.5,2,2.5758293035489,0.01,1.5,0.3746154,1.79788724062159,2.82234770395553,NaN,0.0934275,2.03,1.8399962,2.03,1.8430271
1282,4,0.995,-0.15,0.5,2,2.5758293035489,0.05,1.5,0.371647,1.79788724062159,2.82234770395553,NaN,0.0837301,2.03,1.8596859,2.03,1.830229
1283,4,0.995,-0.15,0.5,3,2.5758293035489,0.01,1.502,1.9686965,1.45713363060055,1.89415293244975,2.77934759860043,25.0224805,2.031,17.470189,2.031,17.5965299
1284,4,0.995,-0.15,0.5,3,2.5758293035489,0.05,1.502,1.8760731,1.45713363060055,1.89415293244975,2.77934759860043,25.3345353,2.031,17.4843959,2.031,17.5414727
1285,5,0.995,-0.15,0.5,1,2.5758293035489,0.01,1.7,0.2083428,1.50045839304566,NaN,NaN,0.0050184,3.5,0.2587464,3.5,0.260911
1286,5,0.995,-0.15,0.5,1,2.5758293035489,0.05,1.7,0.1968615,1.50045839304566,NaN,NaN,0.0055114,3.5,0.2623295,3.5,0.2633175
1287,5,0.995,-0.15,0.5,2,2.5758293035489,0.01,1.75,0.3569178,1.59298821298578,2.5980855586188,NaN,0.1017959,3.51,2.2281188,3.51,2.2145974
1288,5,0.995,-0.15,0.5,2,2.5758293035489,0.05,1.75,0.3582495,1.59298821298578,2.5980855586188,NaN,0.0878151,3.51,2.2755723,3.51,2.3929819
1289,5,0.995,-0.15,0.5,3,2.5758293035489,0.01,1.514,1.868134,1.67958701873004,2.59582677057056,NaN,24.1990734,3.512,17.7786606,3.512,18.1153554
1290,5,0.995,-0.15,0.5,3,2.5758293035489,0.05,1.514,1.878854,1.67958701873004,2.59582677057056,NaN,24.6213003,3.512,17.8187739,3.512,18.0148233
1291,6,0.995,-0.15,0.5,1,2.5758293035489,0.01,1.7,0.1996479,1.8480365134178,NaN,NaN,0.0051273,3.6,0.2590264,3.6,0.2578928
1292,6,0.995,-0.15,0.5,1,2.5758293035489,0.05,1.7,0.1985674,1.8480365134178,NaN,NaN,0.0053619,3.6,0.2576497,3.6,0.2596488
1293,6,0.995,-0.15,0.5,2,2.5758293035489,0.01,1.51,0.4733056,1.90297571836215,2.82563735753386,NaN,0.0890259,1.63,1.5863907,1.63,1.675504
1294,6,0.995,-0.15,0.5,2,2.5758293035489,0.05,1.51,0.5661504,1.90297571836215,2.82563735753386,NaN,0.0835483,1.63,1.6629413,1.63,1.7809684
1295,6,0.995,-0.15,0.5,3,2.5758293035489,0.01,1.479,1.8200349,1.91047806866688,2.81274260245531,NaN,24.4980316,1.613,15.4544553,1.613,15.5621379
1296,6,0.995,-0.15,0.5,3,2.5758293035489,0.05,1.479,1.8094868,1.91047806866688,2.81274260245531,NaN,24.7793496,1.613,15.2701668,1.613,15.6465303
1297,7,0.995,-0.15,0.5,1,2.5758293035489,0.01,1.6,0.2124289,NaN,NaN,NaN,0.0030145,3.4,0.2610718,3.4,0.2546029
1298,7,0.995,-0.15,0.5,1,2.5758293035489,0.05,1.6,0.198627,NaN,NaN,NaN,0.0029029,3.4,0.2539523,3.4,0.2629471
1299,7,0.995,-0.15,0.5,2,2.5758293035489,0.01,1.76,0.3912518,1.6524296894704,2.43036242721055,NaN,0.0830024,3.38,2.1853659,3.38,2.211007
1300,7,0.995,-0.15,0.5,2,2.5758293035489,0.05,1.76,0.3868947,1.6524296894704,2.43036242721055,NaN,0.0878152,3.38,2.1982779,3.38,2.1861684
1301,7,0.995,-0.15,0.5,3,2.5758293035489,0.01,1.571,2.0623594,1.67184228970865,2.0410834170968,2.42307125883774,24.6418063,3.382,17.8228801,3.382,18.1219826
1302,7,0.995,-0.15,0.5,3,2.5758293035489,0.05,1.571,1.9733529,1.67184228970865,2.0410834170968,2.42307125883774,24.4022305,3.382,18.005545,3.382,18.0992795
1303,8,0.995,-0.15,0.5,1,2.5758293035489,0.01,1.7,0.1925671,NaN,NaN,NaN,0.0029863,3.3,0.2590751,3.3,0.2506825
1304,8,0.995,-0.15,0.5,1,2.5758293035489,0.05,1.7,0.1807743,NaN,NaN,NaN,0.002661,3.3,0.2495953,3.3,0.2525011
1305,8,0.995,-0.15,0.5,2,2.5758293035489,0.01,1.7,0.4684727,2.10391520270478,2.38234517664488,NaN,0.0915533,3.31,2.258437,3.31,2.2576335
1306,8,0.995,-0.15,0.5,2,2.5758293035489,0.05,1.7,0.4735186,2.10391520270478,2.38234517664488,NaN,0.0937337,3.31,2.3575555,3.31,2.4117638
1307,8,0.995,-0.15,0.5,3,2.5758293035489,0.01,0.818,1.3857726,1.69255703570488,2.02129747308758,2.16273474380529,25.1438331,3.308,18.636381,3.308,18.7182787
1308,8,0.995,-0.15,0.5,3,2.5758293035489,0.05,0.818,1.3531856,1.69255703570488,2.02129747308758,2.16273474380529,25.4166146,3.308,18.5489315,3.308,18.6712426
1309,9,0.995,-0.15,0.5,1,2.5758293035489,0.01,1.7,0.2023827,NaN,NaN,NaN,0.006806,3.3,0.3023907,3.3,0.2990148
1310,9,0.995,-0.15,0.5,1,2.5758293035489,0.05,2.3,0.4461934,NaN,NaN,NaN,0.0036198,3.3,0.2499768,3.3,0.2481545
1311,9,0.995,-0.15,0.5,2,2.5758293035489,0.01,1.72,0.5578719,2.47345584587739,NaN,NaN,0.1038726,1.93,1.9268785,1.93,1.828768
1312,9,0.995,-0.15,0.5,2,2.5758293035489,0.05,1.72,0.4802905,2.47345584587739,NaN,NaN,0.1008779,1.93,1.7881761,1.93,1.8338586
1313,9,0.995,-0.15,0.5,3,2.5758293035489,0.01,1.427,1.9677703,1.88638999045282,2.4651490197074,NaN,24.899196,1.869,16.9840586,1.869,17.1211051
1314,9,0.995,-0.15,0.5,3,2.5758293035489,0.05,1.427,1.9656202,1.88638999045282,2.4651490197074,NaN,24.7388589,1.923,17.0538053,1.923,16.9667357
1315,10,0.995,-0.15,0.5,1,2.5758293035489,0.01,1.1,0.1015335,1.73780225544488,NaN,NaN,0.0052634,3.3,0.2667674,3.3,0.2766583
1316,10,0.995,-0.15,0.5,1,2.5758293035489,0.05,1.6,0.2380581,1.73780225544488,NaN,NaN,0.0052031,3.3,0.3354646,3.3,0.2460845
1317,10,0.995,-0.15,0.5,2,2.5758293035489,0.01,1.69,0.4188287,1.70771663498009,2.46467264196094,2.8452996333944,0.1040752,3.29,2.3831325,3.29,2.3695193
1318,10,0.995,-0.15,0.5,2,2.5758293035489,0.05,1.69,0.3792804,1.70771663498009,2.46467264196094,2.8452996333944,0.0847868,3.29,2.2519742,3.29,2.2721159
1319,10,0.995,-0.15,0.5,3,2.5758293035489,0.01,1.353,1.9317504,1.69642707394807,1.82001266067707,2.45177058117163,24.7581073,1.952,17.0745292,1.952,17.2395407
1320,10,0.995,-0.15,0.5,3,2.5758293035489,0.05,1.353,1.9324553,1.69642707394807,1.82001266067707,2.45177058117163,24.8107064,1.952,17.1939124,1.952,17.0766043
1321,1,0.995,-0.15,1,1,2.5758293035489,0.01,2.6,0.3389323,1.44900986666191,2.69139153174936,NaN,0.007013,1.5,0.1545817,1.5,0.1570663
1322,1,0.995,-0.15,1,1,2.5758293035489,0.05,2.6,0.3769457,1.44900986666191,2.69139153174936,NaN,0.0058222,1.8,0.2349714,1.5,0.1524231
1323,1,0.995,-0.15,1,2,2.5758293035489,0.01,2.64,0.4802145,1.59882091796596,2.65876861022664,3.17557478882206,0.1034483,1.49,1.4985236,1.49,1.3900432
1324,1,0.995,-0.15,1,2,2.5758293035489,0.05,2.64,0.4419478,1.59882091796596,2.65876861022664,3.17557478882206,0.1195373,1.49,1.4039563,1.49,1.4098815
1325,1,0.995,-0.15,1,3,2.5758293035489,0.01,1.711,2.5266815,1.67255444684216,2.64746710325793,3.18091074097005,24.9504841,1.486,13.8663674,1.483,13.6190116
1326,1,0.995,-0.15,1,3,2.5758293035489,0.05,1.711,2.5478055,1.67255444684216,2.64746710325793,3.18091074097005,24.75416,1.486,13.6351376,1.486,13.7869904
1327,2,0.995,-0.15,1,1,2.5758293035489,0.01,1.7,0.2053767,1.72624428234316,2.77774462033174,NaN,0.0063854,1.6,0.1618941,1.6,0.161748
1328,2,0.995,-0.15,1,1,2.5758293035489,0.05,1.7,0.2010769,1.72624428234316,2.77774462033174,NaN,0.0052984,1.6,0.1666992,1.6,0.1649196
1329,2,0.995,-0.15,1,2,2.5758293035489,0.01,1.61,0.4947015,1.77678752088479,2.62611141087246,NaN,0.0931367,1.39,1.3954006,1.39,1.385174
1330,2,0.995,-0.15,1,2,2.5758293035489,0.05,1.61,0.4849931,1.77678752088479,2.62611141087246,NaN,0.086486,1.39,1.4008912,1.53,1.4550751
1331,2,0.995,-0.15,1,3,2.5758293035489,0.01,1.776,2.5104446,1.83278597954064,2.61217774249468,NaN,25.5969747,1.384,13.8392094,1.376,13.9296673
1332,2,0.995,-0.15,1,3,2.5758293035489,0.05,1.776,2.4868318,1.83278597954064,2.61217774249468,NaN,25.9848895,1.391,13.7942534,1.531,14.3757011
1333,3,0.995,-0.15,1,1,2.5758293035489,0.01,1.6,0.2339593,1.5790394057488,2.63317152967561,NaN,0.0065141,1.4,0.1508923,1.4,0.1531439
1334,3,0.995,-0.15,1,1,2.5758293035489,0.05,1.6,0.218424,1.5790394057488,2.63317152967561,NaN,0.0068261,1.7,0.1641421,1.7,0.163989
1335,3,0.995,-0.15,1,2,2.5758293035489,0.01,1.41,0.3774627,1.66498194934909,2.61301971407814,NaN,0.0784703,1.35,1.3530576,1.33,1.4098192
1336,3,0.995,-0.15,1,2,2.5758293035489,0.05,1.92,0.4765128,1.66498194934909,2.61301971407814,NaN,0.1040747,1.65,1.5831272,1.65,1.6461096
1337,3,0.995,-0.15,1,3,2.5758293035489,0.01,1.396,2.0338783,1.70921906703078,2.61092613453783,3.09654349338617,26.2406992,1.353,13.5339301,1.33,13.3110228
1338,3,0.995,-0.15,1,3,2.5758293035489,0.05,1.396,2.0201141,1.70921906703078,2.61092613453783,3.09654349338617,26.3427102,1.65,15.252618,1.65,14.9482861
1339,4,0.995,-0.15,1,1,2.5758293035489,0.01,1.5,0.228173,1.63914623776834,2.98916110486102,NaN,0.0053729,1.7,0.1663998,1.7,0.164374
1340,4,0.995,-0.15,1,1,2.5758293035489,0.05,1.5,0.2207959,1.63914623776834,2.98916110486102,NaN,0.0053494,1.7,0.1686729,1.7,0.1628257
1341,4,0.995,-0.15,1,2,2.5758293035489,0.01,1.69,0.3609938,1.75753913241203,2.59537203593329,3.01134040020812,0.0849022,1.43,1.4236645,1.43,1.414943
1342,4,0.995,-0.15,1,2,2.5758293035489,0.05,1.69,0.3510654,1.75753913241203,2.59537203593329,3.01134040020812,0.0900144,1.44,1.4142612,1.43,1.4139579
1343,4,0.995,-0.15,1,3,2.5758293035489,0.01,1.702,2.5058793,1.70418177351138,1.892165119658,2.57824931663217,25.4499475,1.425,14.0173082,1.418,13.6780465
1344,4,0.995,-0.15,1,3,2.5758293035489,0.05,1.702,2.5153709,1.70418177351138,1.892165119658,2.57824931663217,25.2338468,1.425,14.4665731,1.425,13.8621007
1345,5,0.995,-0.15,1,1,2.5758293035489,0.01,2.6,0.3230331,1.40757009608081,2.81548751226108,NaN,0.0065066,1.8,0.1778185,1.8,0.1724456
1346,5,0.995,-0.15,1,1,2.5758293035489,0.05,2.6,0.3247737,1.40757009608081,2.81548751226108,NaN,0.0061042,1.8,0.173014,1.8,0.1762433
1347,5,0.995,-0.15,1,2,2.5758293035489,0.01,2.64,0.7362689,1.51990339953879,2.77019882808643,3.16027641846717,0.0957101,1.74,1.5769103,1.74,1.587601
1348,5,0.995,-0.15,1,2,2.5758293035489,0.05,2.64,0.7609767,1.51990339953879,2.77019882808643,3.16027641846717,0.1013367,1.75,1.5953833,1.74,1.56576
1349,5,0.995,-0.15,1,3,2.5758293035489,0.01,2.639,2.6353252,1.67841459853617,2.75182964739024,3.1641421172622,25.4711184,1.739,15.840924,1.739,15.325904
1350,5,0.995,-0.15,1,3,2.5758293035489,0.05,2.639,2.6343664,1.67841459853617,2.75182964739024,3.1641421172622,24.9295315,1.75,15.3695922,1.75,15.6040351
1351,6,0.995,-0.15,1,1,2.5758293035489,0.01,2.5,0.3770136,1.13993764999966,2.7160166284485,NaN,0.0054665,1.8,0.1693264,1.8,0.1625956
1352,6,0.995,-0.15,1,1,2.5758293035489,0.05,2.5,0.3212665,1.13993764999966,2.7160166284485,NaN,0.0053961,1.8,0.1682002,1.8,0.164973
1353,6,0.995,-0.15,1,2,2.5758293035489,0.01,2.6,0.5921402,1.25309869097052,2.66108105648592,3.48737146239046,0.0954132,1.64,1.5048648,1.64,1.5273081
1354,6,0.995,-0.15,1,2,2.5758293035489,0.05,2.6,0.6133197,1.25309869097052,2.66108105648592,3.48737146239046,0.0898814,1.68,1.5299265,1.64,1.5177555
1355,6,0.995,-0.15,1,3,2.5758293035489,0.01,2.599,2.5595851,1.392527260313,2.65860767647234,3.44414983235385,25.8382367,1.64,14.8374857,1.64,15.0988314
1356,6,0.995,-0.15,1,3,2.5758293035489,0.05,2.599,2.7014977,1.392527260313,2.65860767647234,3.44414983235385,25.178312,1.64,14.9887068,1.64,15.1835011
1357,7,0.995,-0.15,1,1,2.5758293035489,0.01,1.8,0.2175456,1.75489237065987,NaN,NaN,0.0060991,1.5,0.1506625,1.5,0.1479099
1358,7,0.995,-0.15,1,1,2.5758293035489,0.05,1.8,0.2156739,1.75489237065987,NaN,NaN,0.0055515,1.5,0.1500673,1.5,0.1474674
1359,7,0.995,-0.15,1,2,2.5758293035489,0.01,1.71,0.3874141,1.77447430606553,3.01806773925457,NaN,0.0839181,1.29,1.3344191,1.29,1.3163726
1360,7,0.995,-0.15,1,2,2.5758293035489,0.05,1.71,0.4019907,1.77447430606553,3.01806773925457,NaN,0.0971188,1.51,1.4377699,1.47,1.4476786
1361,7,0.995,-0.15,1,3,2.5758293035489,0.01,1.722,2.4577424,1.83436537507861,2.98958761468466,NaN,23.9154784,1.288,13.4202495,1.288,13.5283693
1362,7,0.995,-0.15,1,3,2.5758293035489,0.05,1.722,2.7142413,1.83436537507861,2.98958761468466,NaN,24.3889508,1.512,14.2569958,1.288,13.4315397
1363,8,0.995,-0.15,1,1,2.5758293035489,0.01,1.4,0.2276793,1.73547430366398,NaN,NaN,0.0057517,1.6,0.1609453,1.6,0.1574084
1364,8,0.995,-0.15,1,1,2.5758293035489,0.05,1.9,0.3869054,1.73547430366398,NaN,NaN,0.0057297,1.7,0.1636123,1.6,0.1633866
1365,8,0.995,-0.15,1,2,2.5758293035489,0.01,1.43,0.4796114,1.85582307231425,2.54094186221198,NaN,0.099743,1.29,1.3319137,1.29,1.3196497
1366,8,0.995,-0.15,1,2,2.5758293035489,0.05,1.93,0.5717972,1.85582307231425,2.54094186221198,NaN,0.0874478,1.29,1.3466006,1.29,1.3133647
1367,8,0.995,-0.15,1,3,2.5758293035489,0.01,1.436,2.190363,1.89446871444999,2.52656825448403,NaN,25.127527,1.207,12.7092058,1.207,12.9922809
1368,8,0.995,-0.15,1,3,2.5758293035489,0.05,1.436,2.0299863,1.89446871444999,2.52656825448403,NaN,24.7333069,1.207,12.6843214,1.207,12.6749431
1369,9,0.995,-0.15,1,1,2.5758293035489,0.01,1.5,0.224523,1.5920667170709,NaN,NaN,0.0055024,1.6,0.1565296,1.6,0.1591387
1370,9,0.995,-0.15,1,1,2.5758293035489,0.05,1.5,0.2093793,1.5920667170709,NaN,NaN,0.006111,1.7,0.164028,1.6,0.1561682
1371,9,0.995,-0.15,1,2,2.5758293035489,0.01,1.55,0.3916554,1.65775214015494,2.5196635249455,2.96599884676008,0.0963375,1.29,1.3384858,1.29,1.3041188
1372,9,0.995,-0.15,1,2,2.5758293035489,0.05,1.55,0.3945404,1.65775214015494,2.5196635249455,2.96599884676008,0.093959,1.64,1.7265486,1.64,1.7275666
1373,9,0.995,-0.15,1,3,2.5758293035489,0.01,1.554,2.20332,1.73036702794806,2.50386866779696,2.96851846984961,25.5793637,1.325,13.0670603,1.29,12.8019218
1374,9,0.995,-0.15,1,3,2.5758293035489,0.05,1.554,1.9977168,1.73036702794806,2.50386866779696,2.96851846984961,25.3272575,1.638,14.965523,1.638,14.4712921
1375,10,0.995,-0.15,1,1,2.5758293035489,0.01,2.6,0.3233021,1.52645401058196,2.91625716621808,NaN,0.0058802,1.5,0.1546923,1.5,0.156312
1376,10,0.995,-0.15,1,1,2.5758293035489,0.05,2.9,0.5106062,1.52645401058196,2.91625716621808,NaN,0.006214,1.6,0.160687,1.5,0.1540186
1377,10,0.995,-0.15,1,2,2.5758293035489,0.01,2.63,0.6831022,1.68357990372439,2.95229639575582,NaN,0.0933446,1.44,1.4093104,1.44,1.4149604
1378,10,0.995,-0.15,1,2,2.5758293035489,0.05,2.63,0.6873408,1.68357990372439,2.95229639575582,NaN,0.1117569,1.44,1.4543863,1.44,1.4296431
1379,10,0.995,-0.15,1,3,2.5758293035489,0.01,1.765,2.4021517,1.75389927249152,2.98391953539962,3.56823450786393,24.5491933,1.441,14.424874,1.441,13.9785574
1380,10,0.995,-0.15,1,3,2.5758293035489,0.05,1.765,2.4019475,1.75389927249152,2.98391953539962,3.56823450786393,24.2542998,1.441,14.187261,1.441,14.4273429
1381,1,0.995,-0.15,2,1,2.5758293035489,0.01,2.9,0.4364763,1.43110055306324,2.94317496720902,4.10173101222713,0.0072359,1.5,0.1438565,1.5,0.143368
1382,1,0.995,-0.15,2,1,2.5758293035489,0.05,2.9,0.4249123,1.43110055306324,2.94317496720902,4.10173101222713,0.0072493,1.5,0.1412679,1.5,0.1414706
1383,1,0.995,-0.15,2,2,2.5758293035489,0.01,2.73,0.4679955,1.56257990920279,2.93201563279043,4.28483178228018,0.0996099,1.47,1.302274,1.46,1.2970327
1384,1,0.995,-0.15,2,2,2.5758293035489,0.05,2.73,0.463721,1.56257990920279,2.93201563279043,4.28483178228018,0.0891973,1.53,1.3502496,1.48,1.3330526
1385,1,0.995,-0.15,2,3,2.5758293035489,0.01,2.576,2.5457583,1.66429782294536,2.94338022866512,4.28142030863553,24.6502044,1.096,11.0741371,1.091,11.1525895
1386,1,0.995,-0.15,2,3,2.5758293035489,0.05,2.576,2.5994561,1.66429782294536,2.94338022866512,4.28142030863553,24.3547715,1.531,13.3956444,1.473,13.1522691
1387,2,0.995,-0.15,2,1,2.5758293035489,0.01,2.5,0.3933306,1.62259478579972,NaN,NaN,0.0061815,1.7,0.1590853,1.4,0.1456832
1388,2,0.995,-0.15,2,1,2.5758293035489,0.05,2.5,0.3723757,1.62259478579972,NaN,NaN,0.0058683,1.8,0.1655394,1.8,0.1643767
1389,2,0.995,-0.15,2,2,2.5758293035489,0.01,2.57,0.7174486,1.76441977121113,2.68940375397639,NaN,0.1163138,1.11,1.3412775,1.1,1.2300365
1390,2,0.995,-0.15,2,2,2.5758293035489,0.05,2.57,0.8169953,1.76441977121113,2.68940375397639,NaN,0.0974294,1.66,1.6848434,1.11,1.2671743
1391,2,0.995,-0.15,2,3,2.5758293035489,0.01,2.573,3.4973673,1.83876956343308,2.67245405425679,NaN,27.1248064,1.096,13.622164,1.074,13.9791281
1392,2,0.995,-0.15,2,3,2.5758293035489,0.05,2.573,3.0809194,1.83876956343308,2.67245405425679,NaN,25.1958668,1.654,14.5039647,1.12,11.9562547
1393,3,0.995,-0.15,2,1,2.5758293035489,0.01,2.6,0.4328803,1.48799508212364,3.2598741788061,NaN,0.0070794,1.5,0.1399591,1.5,0.1374734
1394,3,0.995,-0.15,2,1,2.5758293035489,0.05,2.6,0.4695569,1.48799508212364,3.2598741788061,NaN,0.0075097,1.5,0.1432954,1.5,0.142822
1395,3,0.995,-0.15,2,2,2.5758293035489,0.01,2.57,0.4823253,1.54961397962371,2.7155583166508,3.26873234587887,0.1065998,1.47,1.3653842,1.06,1.0748038
1396,3,0.995,-0.15,2,2,2.5758293035489,0.05,2.57,0.4986239,1.54961397962371,2.7155583166508,3.26873234587887,0.1019366,1.49,1.3359195,1.47,1.3326126
1397,3,0.995,-0.15,2,3,2.5758293035489,0.01,1.709,2.2837257,1.61676535939973,2.680255036492,3.26791522000262,24.356151,1.463,12.9372382,1.01,10.2761241
1398,3,0.995,-0.15,2,3,2.5758293035489,0.05,2.574,2.4391843,1.61676535939973,2.680255036492,3.26791522000262,24.7235298,1.463,13.1374855,1.463,13.0623697
1399,4,0.995,-0.15,2,1,2.5758293035489,0.01,2.5,0.2623798,1.04266699463458,2.73345702560863,NaN,0.0072119,1.7,0.1663878,1.7,0.1519642
1400,4,0.995,-0.15,2,1,2.5758293035489,0.05,2.5,0.2555841,1.04266699463458,2.73345702560863,NaN,0.0068768,1.9,0.1647839,1.9,0.1633516
1401,4,0.995,-0.15,2,2,2.5758293035489,0.01,2.56,0.5117853,1.18679294623738,2.68251563463621,4.5365241414982,0.0945547,1.64,1.4211263,0.92,0.9716229
1402,4,0.995,-0.15,2,2,2.5758293035489,0.05,2.56,0.4846288,1.18679294623738,2.68251563463621,4.5365241414982,0.1043404,1.72,1.4647688,1.72,1.4648357
1403,4,0.995,-0.15,2,3,2.5758293035489,0.01,2.56,2.4730132,1.33121706634747,2.67850752226787,4.53562410242717,23.0931603,1.634,14.320267,0.923,9.7202143
1404,4,0.995,-0.15,2,3,2.5758293035489,0.05,2.56,2.5208049,1.33121706634747,2.67850752226787,4.53562410242717,22.6900784,1.722,14.4644229,1.722,14.6562222
1405,5,0.995,-0.15,2,1,2.5758293035489,0.01,2.6,0.2617268,1.0445904267347,2.70673013497795,NaN,0.0072727,1.7,0.1545419,1.5,0.1388779
1406,5,0.995,-0.15,2,1,2.5758293035489,0.05,2.6,0.2598425,1.0445904267347,2.70673013497795,NaN,0.0074015,6.4,0.3341267,1.7,0.160862
1407,5,0.995,-0.15,2,2,2.5758293035489,0.01,2.57,0.5264966,1.23055583905852,2.69066466605865,NaN,0.0961209,1.48,1.3307426,1.48,1.3262486
1408,5,0.995,-0.15,2,2,2.5758293035489,0.05,2.57,0.4918402,1.23055583905852,2.69066466605865,NaN,0.0875894,1.71,1.4824924,1.63,1.4376323
1409,5,0.995,-0.15,2,3,2.5758293035489,0.01,2.573,2.7586964,1.36983920612367,2.6778918065406,3.84459297631172,25.3595774,1.476,13.3860523,1.041,10.8037128
1410,5,0.995,-0.15,2,3,2.5758293035489,0.05,2.573,2.8530875,1.36983920612367,2.6778918065406,3.84459297631172,25.2111423,1.708,14.2256369,1.476,13.4362632
1411,6,0.995,-0.15,2,1,2.5758293035489,0.01,2.6,0.4395605,1.43639032942959,2.77795148443412,4.43356098494539,0.006645,1.4,0.1364384,1.3,0.1316927
1412,6,0.995,-0.15,2,1,2.5758293035489,0.05,2.6,0.4181691,1.43639032942959,2.77795148443412,4.43356098494539,0.0073844,1.4,0.1362446,1.4,0.1391817
1413,6,0.995,-0.15,2,2,2.5758293035489,0.01,2.57,0.6105381,1.5502261002403,2.7043812804241,4.40835761852358,0.0911982,1.32,1.2394773,1.29,1.2201152
1414,6,0.995,-0.15,2,2,2.5758293035489,0.05,2.57,0.5916132,1.5502261002403,2.7043812804241,4.40835761852358,0.1106931,1.38,1.2737152,1.38,1.2663641
1415,6,0.995,-0.15,2,3,2.5758293035489,0.01,2.575,2.5877353,1.64699620638285,2.68025506625635,4.40108363013961,25.3789466,1.313,12.1950798,1.288,12.2992768
1416,6,0.995,-0.15,2,3,2.5758293035489,0.05,2.575,2.410432,1.64699620638285,2.68025506625635,4.40108363013961,25.2751419,1.377,12.5364565,1.313,12.0941013
1417,7,0.995,-0.15,2,1,2.5758293035489,0.01,2.6,0.3658483,1.32953566525467,2.74198287507098,4.06224338724515,0.0083854,1.5,0.1425414,1.3,0.1275279
1418,7,0.995,-0.15,2,1,2.5758293035489,0.05,2.6,0.3522766,1.32953566525467,2.74198287507098,4.06224338724515,0.0077717,1.6,0.1491372,1.5,0.146887
1419,7,0.995,-0.15,2,2,2.5758293035489,0.01,2.6,0.4826419,1.46974813358978,2.70278764002846,3.89006335088701,0.1049274,1.35,1.2569298,0.99,1.0199758
1420,7,0.995,-0.15,2,2,2.5758293035489,0.05,2.6,0.497481,1.46974813358978,2.70278764002846,3.89006335088701,0.0928011,1.35,1.2563374,1.35,1.2505635
1421,7,0.995,-0.15,2,3,2.5758293035489,0.01,2.599,2.9376412,1.56562135154554,2.69483056867683,3.87219396713106,24.5105609,1.004,10.287705,0.993,10.207764
1422,7,0.995,-0.15,2,3,2.5758293035489,0.05,2.599,2.8654599,1.56562135154554,2.69483056867683,3.87219396713106,25.3843834,1.351,14.5378355,1.351,13.7880126
1423,8,0.995,-0.15,2,1,2.5758293035489,0.01,2.6,0.3471578,1.09405920663286,2.74877677943878,3.33839948683054,0.0085622,1.8,0.1713822,1.7,0.1844573
1424,8,0.995,-0.15,2,1,2.5758293035489,0.05,2.6,0.3082476,1.09405920663286,2.74877677943878,3.33839948683054,0.0083932,2.3,0.2154621,1.8,0.1875785
1425,8,0.995,-0.15,2,2,2.5758293035489,0.01,2.57,0.6246536,1.23861090064765,2.70200855242029,3.31152470295674,0.1193008,1.74,1.6627788,0.92,1.1086818
1426,8,0.995,-0.15,2,2,2.5758293035489,0.05,2.57,0.5826815,1.23861090064765,2.70200855242029,3.31152470295674,0.0978568,1.75,1.700879,1.74,1.6914084
1427,8,0.995,-0.15,2,3,2.5758293035489,0.01,2.57,2.7603174,1.37499526687292,2.68160101918169,3.32204856876116,27.0305305,1.74,16.3144377,0.924,10.4502643
1428,8,0.995,-0.15,2,3,2.5758293035489,0.05,2.57,2.7820287,1.37499526687292,2.68160101918169,3.32204856876116,26.8365375,1.746,16.1475568,1.74,16.6028895
1429,9,0.995,-0.15,2,1,2.5758293035489,0.01,2.5,0.4276913,1.4701106600395,2.62705368406395,NaN,0.0069819,1.3,0.1425786,1.3,0.1412386
1430,9,0.995,-0.15,2,1,2.5758293035489,0.05,2.5,0.4233989,1.4701106600395,2.62705368406395,NaN,0.0060894,1.4,0.1590632,1.4,0.1608238
1431,9,0.995,-0.15,2,2,2.5758293035489,0.01,2.58,0.705089,1.62459096891293,2.60371679476712,NaN,0.0948915,1.29,1.3533356,1.29,1.3527664
1432,9,0.995,-0.15,2,2,2.5758293035489,0.05,2.58,0.6526752,1.62459096891293,2.60371679476712,NaN,0.108296,1.29,1.3620641,1.29,1.353667
1433,9,0.995,-0.15,2,3,2.5758293035489,0.01,2.576,2.7005856,1.72779958217994,2.59323139115188,NaN,26.0262622,1.288,13.7059844,1.288,13.92828
1434,9,0.995,-0.15,2,3,2.5758293035489,0.05,2.576,2.6638965,1.72779958217994,2.59323139115188,NaN,26.0151875,1.288,14.0008737,1.288,14.0813521
1435,10,0.995,-0.15,2,1,2.5758293035489,0.01,2.6,0.4816157,1.35495638579077,2.76086912091289,NaN,0.0113036,1.4,0.1564424,1.4,0.1844685
1436,10,0.995,-0.15,2,1,2.5758293035489,0.05,2.6,0.5848078,1.35495638579077,2.76086912091289,NaN,0.0077138,1.7,0.2068549,1.4,0.208999
1437,10,0.995,-0.15,2,2,2.5758293035489,0.01,2.6,0.7923115,1.44028581994496,2.70054781333622,4.34939731905535,0.1075441,1.36,1.8106475,0.94,1.471835
1438,10,0.995,-0.15,2,2,2.5758293035489,0.05,2.6,0.7788334,1.44028581994496,2.70054781333622,4.34939731905535,0.11093,1.36,1.9997079,1.36,1.8430822
1439,10,0.995,-0.15,2,3,2.5758293035489,0.01,2.596,3.4045825,1.53167520676852,2.70133173987009,4.37010615610913,25.6687186,0.993,16.6038545,0.942,13.5186796
1440,10,0.995,-0.15,2,3,2.5758293035489,0.05,2.596,2.9483006,1.53167520676852,2.70133173987009,4.37010615610913,24.6113086,1.361,12.7779702,1.361,12.7788923
1441,1,0.995,-0.1,0.5,1,2.5758293035489,0.01,1.8,0.2069533,1.87559484522969,NaN,NaN,0.0051981,3.6,0.2595466,3.6,0.2564429
1442,1,0.995,-0.1,0.5,1,2.5758293035489,0.05,1.8,0.2147355,1.87559484522969,NaN,NaN,0.0049541,3.6,0.2453954,3.6,0.2526324
1443,1,0.995,-0.1,0.5,2,2.5758293035489,0.01,1.59,0.4820549,1.89720135115762,NaN,NaN,0.0880318,1.77,1.7052735,1.77,1.7649168
1444,1,0.995,-0.1,0.5,2,2.5758293035489,0.05,1.89,0.7205705,1.89720135115762,NaN,NaN,0.0900895,1.77,1.8940311,1.77,1.8617408
1445,1,0.995,-0.1,0.5,3,2.5758293035489,0.01,1.832,2.3387018,1.88558237704071,2.62489109077084,NaN,23.5269069,1.72,16.2620669,1.72,16.3189494
1446,1,0.995,-0.1,0.5,3,2.5758293035489,0.05,1.832,2.3196754,1.88558237704071,2.62489109077084,NaN,23.4021538,1.72,16.2815057,1.72,16.4154509
1447,2,0.995,-0.1,0.5,1,2.5758293035489,0.01,1.6,0.259078,1.39864747911398,NaN,NaN,0.0063116,3.8,0.267761,3.8,0.2630773
1448,2,0.995,-0.1,0.5,1,2.5758293035489,0.05,2.8,0.3406718,1.39864747911398,NaN,NaN,0.0060679,3.8,0.2647037,3.8,0.260026
1449,2,0.995,-0.1,0.5,2,2.5758293035489,0.01,1.6,0.3959227,1.53030004829809,1.99516458976637,NaN,0.0958026,1.63,1.5917942,1.63,1.5896877
1450,2,0.995,-0.1,0.5,2,2.5758293035489,0.05,1.6,0.3953304,1.53030004829809,1.99516458976637,NaN,0.0750782,1.63,1.6169189,1.66,1.6062599
1451,2,0.995,-0.1,0.5,3,2.5758293035489,0.01,1.545,1.9879882,1.58259593958765,1.9331948442039,NaN,23.9117613,1.624,15.3948966,1.624,15.535556
1452,2,0.995,-0.1,0.5,3,2.5758293035489,0.05,1.545,1.9269404,1.58259593958765,1.9331948442039,NaN,23.758972,1.624,15.3813209,1.624,15.3604209
1453,3,0.995,-0.1,0.5,1,2.5758293035489,0.01,1.8,0.1975317,1.73034309583939,NaN,NaN,0.0046984,3.5,0.2930832,3.5,0.2695519
1454,3,0.995,-0.1,0.5,1,2.5758293035489,0.05,1.8,0.2280582,1.73034309583939,NaN,NaN,0.0048905,3.5,0.2579667,3.5,0.29188
1455,3,0.995,-0.1,0.5,2,2.5758293035489,0.01,1.87,0.3906208,1.76189515742457,2.69409890404258,3.06237623621479,0.103606,1.75,1.7766601,1.75,1.6673759
1456,3,0.995,-0.1,0.5,2,2.5758293035489,0.05,1.87,0.3980367,1.76189515742457,2.69409890404258,3.06237623621479,0.1044428,1.75,1.6932716,1.75,1.6927281
1457,3,0.995,-0.1,0.5,3,2.5758293035489,0.01,1.762,1.8912755,1.11547003740633,1.81695224125246,2.67862813948101,24.4411417,1.726,16.0866573,1.726,16.4291264
1458,3,0.995,-0.1,0.5,3,2.5758293035489,0.05,1.762,1.9102159,1.11547003740633,1.81695224125246,2.67862813948101,24.7639496,1.726,16.1173658,1.726,16.0807526
1459,4,0.995,-0.1,0.5,1,2.5758293035489,0.01,1.1,0.1000865,1.65637325530143,NaN,NaN,0.0059261,3.6,0.2562411,3.6,0.2585779
1460,4,0.995,-0.1,0.5,1,2.5758293035489,0.05,1.6,0.2074259,1.65637325530143,NaN,NaN,0.0052996,3.6,0.2499337,3.6,0.2500867
1461,4,0.995,-0.1,0.5,2,2.5758293035489,0.01,1.62,0.3764801,1.64679307787106,2.55347178153399,NaN,0.1136533,1.6,1.5870564,1.6,1.7006132
1462,4,0.995,-0.1,0.5,2,2.5758293035489,0.05,1.62,0.3967197,1.64679307787106,2.55347178153399,NaN,0.0977574,1.61,1.7504366,1.6,1.6356896
1463,4,0.995,-0.1,0.5,3,2.5758293035489,0.01,1.625,1.9745836,1.65056026831666,1.91353547268082,2.5417451617901,25.5075264,1.602,15.3993549,1.602,15.3623888
1464,4,0.995,-0.1,0.5,3,2.5758293035489,0.05,1.625,1.9881229,1.65056026831666,1.91353547268082,2.5417451617901,24.6743074,1.611,15.5485638,1.602,15.5753108
1465,5,0.995,-0.1,0.5,1,2.5758293035489,0.01,1.6,0.2213622,1.62534322794415,NaN,NaN,0.0048771,3.6,0.2601947,3.6,0.2560547
1466,5,0.995,-0.1,0.5,1,2.5758293035489,0.05,1.6,0.2085599,1.62534322794415,NaN,NaN,0.0057593,3.6,0.2582018,3.6,0.2595937
1467,5,0.995,-0.1,0.5,2,2.5758293035489,0.01,1.62,0.384766,1.60957121666466,2.91505159503391,NaN,0.0993831,1.55,1.5381922,1.55,1.5614225
1468,5,0.995,-0.1,0.5,2,2.5758293035489,0.05,1.62,0.4223111,1.60957121666466,2.91505159503391,NaN,0.1041161,1.6,1.6024294,1.6,1.6075035
1469,5,0.995,-0.1,0.5,3,2.5758293035489,0.01,1.569,1.931529,1.60313047469842,2.92863517919645,NaN,25.1316114,1.548,15.362862,1.548,15.3036767
1470,5,0.995,-0.1,0.5,3,2.5758293035489,0.05,1.569,1.9295684,1.60313047469842,2.92863517919645,NaN,25.0561777,1.597,16.0898076,1.597,15.5106326
1471,6,0.995,-0.1,0.5,1,2.5758293035489,0.01,1.6,0.2133392,1.67961500445442,NaN,NaN,0.0057864,3.4,0.2491974,3.4,0.2483714
1472,6,0.995,-0.1,0.5,1,2.5758293035489,0.05,1.6,0.2086708,1.67961500445442,NaN,NaN,0.0047357,3.4,0.2467942,3.4,0.2572106
1473,6,0.995,-0.1,0.5,2,2.5758293035489,0.01,1.39,0.3777924,1.71428788330253,2.74401635915191,NaN,0.0768586,1.75,1.646041,1.75,1.6325384
1474,6,0.995,-0.1,0.5,2,2.5758293035489,0.05,1.39,0.3707845,1.71428788330253,2.74401635915191,NaN,0.0697964,1.77,1.6893163,1.77,1.6830879
1475,6,0.995,-0.1,0.5,3,2.5758293035489,0.01,1.242,1.9765624,1.79199391255513,2.73754073695373,NaN,23.3271012,1.662,16.1921941,1.662,15.7572701
1476,6,0.995,-0.1,0.5,3,2.5758293035489,0.05,1.242,1.950432,1.79199391255513,2.73754073695373,NaN,23.4088869,1.662,16.2903804,1.662,15.8145651
1477,7,0.995,-0.1,0.5,1,2.5758293035489,0.01,1.6,0.1980427,1.67862016583643,NaN,NaN,0.0047479,3.4,0.2629109,3.4,0.2696806
1478,7,0.995,-0.1,0.5,1,2.5758293035489,0.05,1.6,0.1977834,1.67862016583643,NaN,NaN,0.0061412,3.4,0.2634396,3.4,0.2621976
1479,7,0.995,-0.1,0.5,2,2.5758293035489,0.01,1.9,0.4201333,1.78659900885511,2.60293656538329,NaN,0.0794313,1.88,1.7879355,1.88,1.7462193
1480,7,0.995,-0.1,0.5,2,2.5758293035489,0.05,1.9,0.4223709,1.78659900885511,2.60293656538329,NaN,0.0900072,1.88,1.7392455,1.88,1.7763165
1481,7,0.995,-0.1,0.5,3,2.5758293035489,0.01,1.351,1.9383221,1.85642740338658,2.58625535144217,NaN,23.9719591,1.871,17.3308443,1.871,16.7575641
1482,7,0.995,-0.1,0.5,3,2.5758293035489,0.05,1.351,1.9425777,1.85642740338658,2.58625535144217,NaN,23.6502623,1.871,16.9636101,1.871,17.0154758
1483,8,0.995,-0.1,0.5,1,2.5758293035489,0.01,1.6,0.2129746,1.78623849610294,NaN,NaN,0.0056626,3.4,0.2579688,3.4,0.256463
1484,8,0.995,-0.1,0.5,1,2.5758293035489,0.05,1.6,0.1993967,1.78623849610294,NaN,NaN,0.0055901,3.4,0.2521891,3.4,0.2533045
1485,8,0.995,-0.1,0.5,2,2.5758293035489,0.01,1.56,0.4655686,1.8700407110322,2.38846280697628,NaN,0.0782115,1.94,1.8338603,1.94,1.8388523
1486,8,0.995,-0.1,0.5,2,2.5758293035489,0.05,1.95,0.6979279,1.8700407110322,2.38846280697628,NaN,0.0900569,1.94,1.8360052,1.94,1.830508
1487,8,0.995,-0.1,0.5,3,2.5758293035489,0.01,1.579,1.9138185,1.88743756313882,2.32090896320232,NaN,24.5933667,1.87,17.8059688,1.87,17.2423795
1488,8,0.995,-0.1,0.5,3,2.5758293035489,0.05,1.579,1.9269101,1.88743756313882,2.32090896320232,NaN,24.5344722,1.87,17.5612361,1.87,17.6843501
1489,9,0.995,-0.1,0.5,1,2.5758293035489,0.01,1.4,0.1952079,2.01823437162986,NaN,NaN,0.0046384,3.4,0.2553277,3.4,0.2574505
1490,9,0.995,-0.1,0.5,1,2.5758293035489,0.05,2.2,0.3686465,2.01823437162986,NaN,NaN,0.0047662,3.4,0.2527705,3.4,0.2507832
1491,9,0.995,-0.1,0.5,2,2.5758293035489,0.01,1.46,0.4659996,2.04114134116125,NaN,NaN,0.0832022,2.02,1.8195691,2.02,1.817284
1492,9,0.995,-0.1,0.5,2,2.5758293035489,0.05,1.46,0.4740157,2.04114134116125,NaN,NaN,0.0783941,2.02,1.8205931,2.02,1.8319219
1493,9,0.995,-0.1,0.5,3,2.5758293035489,0.01,1.434,1.8442872,2.00644919554155,2.93780635235596,NaN,23.9762179,2.012,17.9363893,2.012,17.0980717
1494,9,0.995,-0.1,0.5,3,2.5758293035489,0.05,1.434,1.8513863,2.00644919554155,2.93780635235596,NaN,24.165049,2.012,17.4657497,2.012,17.2979934
1495,10,0.995,-0.1,0.5,1,2.5758293035489,0.01,1.5,0.2523158,1.63620889815227,NaN,NaN,0.0048025,3.5,0.2539279,3.5,0.2514582
1496,10,0.995,-0.1,0.5,1,2.5758293035489,0.05,1.5,0.2249108,1.63620889815227,NaN,NaN,0.0048476,3.5,0.2613203,3.5,0.252635
1497,10,0.995,-0.1,0.5,2,2.5758293035489,0.01,1.58,0.3675811,1.73825299600571,NaN,NaN,0.0832679,1.91,1.7799373,1.91,1.7484919
1498,10,0.995,-0.1,0.5,2,2.5758293035489,0.05,1.58,0.3896175,1.73825299600571,NaN,NaN,0.0876652,1.91,1.7678133,1.91,1.7589515
1499,10,0.995,-0.1,0.5,3,2.5758293035489,0.01,1.582,1.7744401,1.71240134702347,2.11515958499342,NaN,23.7288017,1.699,16.5109521,1.699,15.9777033
1500,10,0.995,-0.1,0.5,3,2.5758293035489,0.05,1.582,1.7826512,1.71240134702347,2.11515958499342,NaN,24.0280764,1.783,16.3744577,1.862,16.8321917
1501,1,0.995,-0.1,1,1,2.5758293035489,0.01,1.6,0.2111001,1.73263682020401,NaN,NaN,0.0052468,1.5,0.1688077,1.5,0.1540484
1502,1,0.995,-0.1,1,1,2.5758293035489,0.05,1.6,0.2099419,1.73263682020401,NaN,NaN,0.0052846,1.5,0.1536334,1.5,0.1580878
1503,1,0.995,-0.1,1,2,2.5758293035489,0.01,1.61,0.3802454,1.78148106171656,3.0222588997447,NaN,0.0782693,1.32,1.3524806,1.32,1.3629796
1504,1,0.995,-0.1,1,2,2.5758293035489,0.05,1.61,0.3957416,1.78148106171656,3.0222588997447,NaN,0.1037872,1.32,1.3566579,1.32,1.3553558
1505,1,0.995,-0.1,1,3,2.5758293035489,0.01,1.628,2.4357424,1.78804754683012,2.99394069523913,NaN,24.6013196,1.325,13.5349348,1.325,13.8801625
1506,1,0.995,-0.1,1,3,2.5758293035489,0.05,1.628,2.4867571,1.78804754683012,2.99394069523913,NaN,24.9531434,1.334,13.8384554,1.325,13.4256156
1507,2,0.995,-0.1,1,1,2.5758293035489,0.01,2.7,0.3419175,1.51043251668739,NaN,NaN,0.0061762,1.6,0.1596148,1.4,0.1419844
1508,2,0.995,-0.1,1,1,2.5758293035489,0.05,2.7,0.3381927,1.51043251668739,NaN,NaN,0.0072428,1.9,0.2099659,1.9,0.2038889
1509,2,0.995,-0.1,1,2,2.5758293035489,0.01,2.71,0.655883,1.62956954901356,3.27921010751119,NaN,0.0752321,1.09,1.2601366,1.09,1.2917651
1510,2,0.995,-0.1,1,2,2.5758293035489,0.05,2.71,0.662047,1.62956954901356,3.27921010751119,NaN,0.1046022,1.65,1.5438144,1.09,1.1609719
1511,2,0.995,-0.1,1,3,2.5758293035489,0.01,1.729,2.2556458,1.69700303930901,3.28119140499434,NaN,23.2990566,1.033,11.2669875,1.033,11.5576572
1512,2,0.995,-0.1,1,3,2.5758293035489,0.05,1.729,2.240908,1.69700303930901,3.28119140499434,NaN,23.1804625,1.095,11.7404585,1.089,11.6138253
1513,3,0.995,-0.1,1,1,2.5758293035489,0.01,1.7,0.2259244,1.52438267863932,2.61681190924796,NaN,0.0058906,1.5,0.1520386,1.5,0.1523157
1514,3,0.995,-0.1,1,1,2.5758293035489,0.05,2.5,0.3574695,1.52438267863932,2.61681190924796,NaN,0.0064076,1.5,0.154738,1.5,0.1500129
1515,3,0.995,-0.1,1,2,2.5758293035489,0.01,2.55,0.4752775,1.60908661379639,2.5804987736198,3.39939479517362,0.0815644,1.53,1.4427787,1.07,1.1690678
1516,3,0.995,-0.1,1,2,2.5758293035489,0.05,2.55,0.5000495,1.60908661379639,2.5804987736198,3.39939479517362,0.0955199,1.53,1.4239232,1.53,1.4302069
1517,3,0.995,-0.1,1,3,2.5758293035489,0.01,1.72,2.5407411,1.68627628834365,2.57322175550171,3.40286129045146,25.0411834,1.525,14.071744,1.073,11.5659724
1518,3,0.995,-0.1,1,3,2.5758293035489,0.05,1.72,2.3949263,1.68627628834365,2.57322175550171,3.40286129045146,25.0157175,1.531,14.41178,1.525,14.0191691
1519,4,0.995,-0.1,1,1,2.5758293035489,0.01,1.6,0.237044,1.60051911410821,2.66676845982794,NaN,0.0064181,1.5,0.1568396,1.5,0.1496202
1520,4,0.995,-0.1,1,1,2.5758293035489,0.05,1.6,0.2299337,1.60051911410821,2.66676845982794,NaN,0.0064433,1.5,0.1499365,1.5,0.154313
1521,4,0.995,-0.1,1,2,2.5758293035489,0.01,1.62,0.3599902,1.6402293081047,2.64584650987908,NaN,0.0884142,1.14,1.2303574,1.14,1.2228355
1522,4,0.995,-0.1,1,2,2.5758293035489,0.05,1.62,0.3658213,1.6402293081047,2.64584650987908,NaN,0.0882581,1.5,1.417984,1.14,1.2174925
1523,4,0.995,-0.1,1,3,2.5758293035489,0.01,1.387,1.8408711,1.64757598819029,2.63306983961263,NaN,23.5658851,1.146,12.5019633,1.138,12.3059737
1524,4,0.995,-0.1,1,3,2.5758293035489,0.05,1.387,1.8517911,1.64757598819029,2.63306983961263,NaN,24.0440359,1.478,14.1826451,1.142,12.5202438
1525,5,0.995,-0.1,1,1,2.5758293035489,0.01,2.6,0.3513937,1.37172520347794,2.7094464454585,NaN,0.0074666,1.4,0.1811062,1.4,0.1574336
1526,5,0.995,-0.1,1,1,2.5758293035489,0.05,2.6,0.3270714,1.37172520347794,2.7094464454585,NaN,0.0058305,1.7,0.2411186,1.4,0.1466196
1527,5,0.995,-0.1,1,2,2.5758293035489,0.01,2.58,0.4993301,1.4965324147713,2.6772906381488,NaN,0.1174375,1.41,1.4391984,1.07,1.149571
1528,5,0.995,-0.1,1,2,2.5758293035489,0.05,2.58,0.4792701,1.4965324147713,2.6772906381488,NaN,0.0991332,1.41,1.3871502,1.41,1.3510914
1529,5,0.995,-0.1,1,3,2.5758293035489,0.01,2.584,2.6034564,1.64050727508926,2.65113943537529,NaN,24.7686863,1.408,13.5847207,1.065,11.5229668
1530,5,0.995,-0.1,1,3,2.5758293035489,0.05,2.584,2.5605569,1.64050727508926,2.65113943537529,NaN,24.6923606,1.408,13.3668321,1.408,13.5208158
1531,6,0.995,-0.1,1,1,2.5758293035489,0.01,1.5,0.2095301,1.82863408508554,NaN,NaN,0.0066463,1.5,0.1612183,1.5,0.1606596
1532,6,0.995,-0.1,1,1,2.5758293035489,0.05,2.7,0.497354,1.82863408508554,NaN,NaN,0.0058431,1.5,0.1597882,1.5,0.1630101
1533,6,0.995,-0.1,1,2,2.5758293035489,0.01,1.92,0.5826592,1.89090557683756,3.22418061299438,NaN,0.0846707,1.4,1.3958144,1.4,1.4029091
1534,6,0.995,-0.1,1,2,2.5758293035489,0.05,1.92,0.5923512,1.89090557683756,3.22418061299438,NaN,0.0795433,1.4,1.3951285,1.4,1.4017036
1535,6,0.995,-0.1,1,3,2.5758293035489,0.01,1.867,2.462582,1.91414150418747,2.67663241807769,3.2180806510589,25.0043923,1.295,13.2999385,1.284,13.4384913
1536,6,0.995,-0.1,1,3,2.5758293035489,0.05,1.867,2.5538545,1.91414150418747,2.67663241807769,3.2180806510589,24.9339616,1.398,13.8616477,1.398,13.8234263
1537,7,0.995,-0.1,1,1,2.5758293035489,0.01,2.5,0.3581764,1.39313447748311,2.72426581325819,3.15889031240765,0.0060683,1.5,0.1507493,1.5,0.1528325
1538,7,0.995,-0.1,1,1,2.5758293035489,0.05,2.5,0.3569425,1.39313447748311,2.72426581325819,3.15889031240765,0.0062339,1.5,0.1514944,1.5,0.15089
1539,7,0.995,-0.1,1,2,2.5758293035489,0.01,2.6,0.5038275,1.51413721374773,2.6814681489389,3.57840768488149,0.1039056,1.53,1.4090727,1.52,1.4094281
1540,7,0.995,-0.1,1,2,2.5758293035489,0.05,2.6,0.4875959,1.51413721374773,2.6814681489389,3.57840768488149,0.0935418,1.6,1.4397156,1.53,1.4204275
1541,7,0.995,-0.1,1,3,2.5758293035489,0.01,2.619,3.4267304,1.55875089832807,2.67962750114009,3.58070336802826,24.9180312,1.525,13.8590055,1.52,13.7419131
1542,7,0.995,-0.1,1,3,2.5758293035489,0.05,2.619,3.1421794,1.55875089832807,2.67962750114009,3.58070336802826,25.4666219,1.597,14.5846846,1.525,13.8145053
1543,8,0.995,-0.1,1,1,2.5758293035489,0.01,2.6,0.3722472,1.61568835876728,NaN,NaN,0.0065628,1.5,0.1547968,1.5,0.1569725
1544,8,0.995,-0.1,1,1,2.5758293035489,0.05,2.6,0.3761945,1.61568835876728,NaN,NaN,0.0060861,1.5,0.1556493,1.5,0.1515952
1545,8,0.995,-0.1,1,2,2.5758293035489,0.01,2.67,0.8165991,1.73750129059557,2.72756995862063,3.57628762466296,0.0788043,1.17,1.2400833,1.15,1.2163131
1546,8,0.995,-0.1,1,2,2.5758293035489,0.05,2.67,0.8176121,1.73750129059557,2.72756995862063,3.57628762466296,0.0993726,1.52,1.4605532,1.15,1.2544099
1547,8,0.995,-0.1,1,3,2.5758293035489,0.01,1.797,2.2872267,1.78642481639649,2.7189414717438,3.65379115806799,24.8841641,1.163,12.8192505,1.152,12.3845194
1548,8,0.995,-0.1,1,3,2.5758293035489,0.05,1.797,2.2493963,1.78642481639649,2.7189414717438,3.65379115806799,24.7437402,1.517,14.3585194,1.163,12.8719976
1549,9,0.995,-0.1,1,1,2.5758293035489,0.01,2.5,0.341298,1.30238357687069,2.67787055833591,NaN,0.0077917,1.7,0.1583694,1.3,0.1346596
1550,9,0.995,-0.1,1,1,2.5758293035489,0.05,2.5,0.3347264,1.30238357687069,2.67787055833591,NaN,0.0065557,1.7,0.1588861,1.7,0.1602977
1551,9,0.995,-0.1,1,2,2.5758293035489,0.01,2.59,0.5128116,1.42552083612288,2.64437711499651,2.95072558260864,0.1186395,1.3,1.2828062,1.3,1.2619246
1552,9,0.995,-0.1,1,2,2.5758293035489,0.05,2.59,0.5081509,1.42552083612288,2.64437711499651,2.95072558260864,0.1063373,1.58,1.4058891,1.57,1.4349935
1553,9,0.995,-0.1,1,3,2.5758293035489,0.01,1.444,1.9168745,1.49092307922065,2.62929761524362,2.94413017542439,24.8140717,1.296,12.798329,1.109,11.8175949
1554,9,0.995,-0.1,1,3,2.5758293035489,0.05,1.444,2.0231618,1.49092307922065,2.62929761524362,2.94413017542439,24.2750863,1.567,13.8853873,1.567,14.1780512
1555,10,0.995,-0.1,1,1,2.5758293035489,0.01,1.6,0.2062204,1.65771585699516,NaN,NaN,0.0057931,1.7,0.1725648,1.7,0.1690682
1556,10,0.995,-0.1,1,1,2.5758293035489,0.05,1.6,0.1995773,1.65771585699516,NaN,NaN,0.0058236,1.7,0.1751936,1.7,0.1752226
1557,10,0.995,-0.1,1,2,2.5758293035489,0.01,1.92,0.5905726,1.77157974614845,2.61714386503516,3.45391544959573,0.0992423,1.45,1.4231211,1.45,1.4332062
1558,10,0.995,-0.1,1,2,2.5758293035489,0.05,2.54,0.6917234,1.77157974614845,2.61714386503516,3.45391544959573,0.0761878,1.53,1.4831728,1.53,1.478844
1559,10,0.995,-0.1,1,3,2.5758293035489,0.01,1.867,2.5626944,1.83612554996719,2.60226749618875,3.50138952187516,25.4837738,1.45,13.9947059,1.45,14.2050987
1560,10,0.995,-0.1,1,3,2.5758293035489,0.05,1.867,2.4253797,1.83612554996719,2.60226749618875,3.50138952187516,25.61681,1.483,14.1404232,1.483,14.1984149
1561,1,0.995,-0.1,2,1,2.5758293035489,0.01,2.5,0.3972594,1.32219690852937,2.62797676295981,NaN,0.007336,1.3,0.152779,1.3,0.1410667
1562,1,0.995,-0.1,2,1,2.5758293035489,0.05,2.5,0.4099109,1.32219690852937,2.62797676295981,NaN,0.0065866,1.8,0.1657439,1.8,0.1925027
1563,1,0.995,-0.1,2,2,2.5758293035489,0.01,2.54,0.3801122,1.44652446183257,2.58833696571789,3.17590930005822,0.1050346,0.89,0.9497519,0.85,0.9529936
1564,1,0.995,-0.1,2,2,2.5758293035489,0.05,2.54,0.376858,1.44652446183257,2.58833696571789,3.17590930005822,0.0963802,1.33,1.2222425,0.89,0.9222253
1565,1,0.995,-0.1,2,3,2.5758293035489,0.01,2.543,2.5380011,1.54039002979665,2.57921417241971,3.16678748015931,23.6817889,0.89,9.2690284,0.89,9.2310613
1566,1,0.995,-0.1,2,3,2.5758293035489,0.05,2.543,2.4955523,1.54039002979665,2.57921417241971,3.16678748015931,23.485227,1.331,12.5168005,0.893,9.4300265
1567,2,0.995,-0.1,2,1,2.5758293035489,0.01,2.5,0.365607,1.20237903512884,2.72599895574499,3.61115210489087,0.0084311,1.4,0.1428548,1.4,0.1374233
1568,2,0.995,-0.1,2,1,2.5758293035489,0.05,2.5,0.36722,1.20237903512884,2.72599895574499,3.61115210489087,0.0083492,2,0.1697857,2,0.167226
1569,2,0.995,-0.1,2,2,2.5758293035489,0.01,2.56,0.4881519,1.31446901482006,2.66962892113404,3.66821239017408,0.0904601,1.42,1.2945979,1.41,1.2780738
1570,2,0.995,-0.1,2,2,2.5758293035489,0.05,2.56,0.4596181,1.31446901482006,2.66962892113404,3.66821239017408,0.0976526,2.01,1.6294885,2.01,1.6186151
1571,2,0.995,-0.1,2,3,2.5758293035489,0.01,2.563,2.6519919,1.41331806986452,2.66354764658553,3.66569603193857,23.6505459,1.415,12.8953745,1.03,10.8272211
1572,2,0.995,-0.1,2,3,2.5758293035489,0.05,2.563,2.6226863,1.41331806986452,2.66354764658553,3.66569603193857,24.0377434,2.009,15.5027056,1.415,12.8565197
1573,3,0.995,-0.1,2,1,2.5758293035489,0.01,2.6,0.4162833,1.24228814747329,2.71842760172163,3.17246686827096,0.007746,1.4,0.1367988,1.4,0.1367308
1574,3,0.995,-0.1,2,1,2.5758293035489,0.05,2.6,0.3970977,1.24228814747329,2.71842760172163,3.17246686827096,0.0083855,1.8,0.1586877,1.8,0.1579836
1575,3,0.995,-0.1,2,2,2.5758293035489,0.01,2.56,0.372288,1.3805743376847,2.65779739471427,3.13925619593697,0.0884714,1.43,1.3180084,1.43,1.3171191
1576,3,0.995,-0.1,2,2,2.5758293035489,0.05,2.56,0.3768226,1.3805743376847,2.65779739471427,3.13925619593697,0.0933095,1.79,1.6412693,1.79,1.5796116
1577,3,0.995,-0.1,2,3,2.5758293035489,0.01,2.565,2.6563416,1.43314824050262,2.65056659982938,3.16209765161824,23.819106,1.424,13.0730331,1.424,13.2144831
1578,3,0.995,-0.1,2,3,2.5758293035489,0.05,2.565,2.5058837,1.43314824050262,2.65056659982938,3.16209765161824,23.8723692,1.783,15.0709274,1.783,14.6866775
1579,4,0.995,-0.1,2,1,2.5758293035489,0.01,2.6,0.4624307,1.61638089140725,2.77260679544667,NaN,0.0077442,1.4,0.1335652,1.3,0.1248182
1580,4,0.995,-0.1,2,1,2.5758293035489,0.05,2.6,0.4654266,1.61638089140725,2.77260679544667,NaN,0.0070665,1.4,0.1642668,1.4,0.1472052
1581,4,0.995,-0.1,2,2,2.5758293035489,0.01,2.57,0.5510075,1.70130190046575,2.70423722929372,3.8277906459883,0.1129111,1.34,1.3126692,1.34,1.3350085
1582,4,0.995,-0.1,2,2,2.5758293035489,0.05,2.57,0.5527891,1.70130190046575,2.70423722929372,3.8277906459883,0.0874329,1.38,1.274925,1.34,1.2329441
1583,4,0.995,-0.1,2,3,2.5758293035489,0.01,1.759,2.3089732,1.75750440410511,2.67136779529608,3.02850909263437,26.2287054,1.337,12.2397826,1.286,12.1200397
1584,4,0.995,-0.1,2,3,2.5758293035489,0.05,1.759,2.3210945,1.75750440410511,2.67136779529608,3.02850909263437,25.9875184,1.373,12.5721638,1.337,12.2782558
1585,5,0.995,-0.1,2,1,2.5758293035489,0.01,2.5,0.5416218,1.58243464661962,NaN,NaN,0.0069093,1.3,0.1422882,1.3,0.1276472
1586,5,0.995,-0.1,2,1,2.5758293035489,0.05,2.5,0.5366972,1.58243464661962,NaN,NaN,0.0061114,1.3,0.1309931,1.3,0.1304617
1587,5,0.995,-0.1,2,2,2.5758293035489,0.01,2.58,0.6007453,1.65740856214066,2.73339776050769,3.9141801274397,0.0733474,1.29,1.2138142,1.29,1.2089219
1588,5,0.995,-0.1,2,2,2.5758293035489,0.05,2.58,0.5993753,1.65740856214066,2.73339776050769,3.9141801274397,0.0767286,1.29,1.2180473,1.29,1.210115
1589,5,0.995,-0.1,2,3,2.5758293035489,0.01,1.718,2.2967503,1.70902040489915,2.73465850326897,3.94266111689776,24.1710682,1.291,12.3845516,1.093,10.7501768
1590,5,0.995,-0.1,2,3,2.5758293035489,0.05,1.718,2.3039585,1.70902040489915,2.73465850326897,3.94266111689776,24.0643915,1.291,12.1110911,1.291,12.2820825
1591,6,0.995,-0.1,2,1,2.5758293035489,0.01,2.6,0.4016707,1.45551176317752,2.72421072275232,NaN,0.0059205,1.8,0.164834,1.8,0.1590037
1592,6,0.995,-0.1,2,1,2.5758293035489,0.05,2.6,0.42051,1.45551176317752,2.72421072275232,NaN,0.0066377,2,0.2483055,2,0.1731695
1593,6,0.995,-0.1,2,2,2.5758293035489,0.01,2.6,0.4960504,1.55852629026135,2.66764739905737,3.38168061312271,0.0936604,1.76,1.5175861,1.76,1.5088308
1594,6,0.995,-0.1,2,2,2.5758293035489,0.05,2.6,0.4858811,1.55852629026135,2.66764739905737,3.38168061312271,0.1026355,1.76,1.5064266,1.76,1.511711
1595,6,0.995,-0.1,2,3,2.5758293035489,0.01,2.596,2.9510321,1.65752909900608,2.66499560305782,3.33369931334204,23.9848278,1.757,14.7617391,1.757,14.9734492
1596,6,0.995,-0.1,2,3,2.5758293035489,0.05,2.596,3.018698,1.65752909900608,2.66499560305782,3.33369931334204,24.3346141,1.757,14.4685622,1.757,14.7209401
1597,7,0.995,-0.1,2,1,2.5758293035489,0.01,2.5,0.3791025,1.25298699755865,3.18391893047467,4.60038584390182,0.0074992,1.4,0.137322,1.4,0.1357486
1598,7,0.995,-0.1,2,1,2.5758293035489,0.05,2.5,0.3840103,1.25298699755865,3.18391893047467,4.60038584390182,0.0075806,1.8,0.1653688,1.8,0.1547666
1599,7,0.995,-0.1,2,2,2.5758293035489,0.01,2.56,0.3636288,1.388767245788,3.14365042081683,4.0250443644386,0.0944279,1.4,1.2501348,1.4,1.2558401
1600,7,0.995,-0.1,2,2,2.5758293035489,0.05,2.56,0.3382957,1.388767245788,3.14365042081683,4.0250443644386,0.127725,1.41,1.2659411,1.77,1.6053108
1601,7,0.995,-0.1,2,3,2.5758293035489,0.01,2.564,2.8934225,1.53521581734694,2.62057960980787,3.13383778878191,24.0262131,1.403,12.3355397,1.403,12.5091736
1602,7,0.995,-0.1,2,3,2.5758293035489,0.05,2.564,2.6654785,1.53521581734694,2.62057960980787,3.13383778878191,24.4000041,1.409,12.4389861,1.749,13.8810042
1603,8,0.995,-0.1,2,1,2.5758293035489,0.01,2.6,0.3723801,1.44759722869244,2.77646383328076,NaN,0.0067898,1.7,0.1841742,1.7,0.1651663
1604,8,0.995,-0.1,2,1,2.5758293035489,0.05,2.6,0.3796696,1.44759722869244,2.77646383328076,NaN,0.0068333,1.7,0.1551718,1.7,0.1591362
1605,8,0.995,-0.1,2,2,2.5758293035489,0.01,2.57,0.670893,1.51910395979466,2.73579706245623,NaN,0.085426,1.01,1.0387845,0.99,1.0206713
1606,8,0.995,-0.1,2,2,2.5758293035489,0.05,2.57,0.6282518,1.51910395979466,2.73579706245623,NaN,0.0865924,1.72,1.618586,1.72,1.6229643
1607,8,0.995,-0.1,2,3,2.5758293035489,0.01,2.573,2.7225823,1.5949855803003,2.74899933808313,4.79545902879006,25.6989648,1.011,10.3769139,0.987,10.2151907
1608,8,0.995,-0.1,2,3,2.5758293035489,0.05,2.573,2.7772615,1.5949855803003,2.74899933808313,4.79545902879006,25.5845429,1.715,14.6444145,1.655,13.9160097
1609,9,0.995,-0.1,2,1,2.5758293035489,0.01,2.5,0.2577338,1.22055773556367,2.69043108538748,3.59372883864265,0.0073294,1.7,0.1533014,1.6,0.1467681
1610,9,0.995,-0.1,2,1,2.5758293035489,0.05,2.5,0.2481818,1.22055773556367,2.69043108538748,3.59372883864265,0.0072433,1.9,0.1656024,1.9,0.1615504
1611,9,0.995,-0.1,2,2,2.5758293035489,0.01,2.58,0.4569642,1.31964203663235,2.65188317525799,3.53134493506857,0.0973318,1.65,1.4155885,1.62,1.4085086
1612,9,0.995,-0.1,2,2,2.5758293035489,0.05,2.58,0.4597592,1.31964203663235,2.65188317525799,3.53134493506857,0.0828409,1.65,1.4524241,1.65,1.438118
1613,9,0.995,-0.1,2,3,2.5758293035489,0.01,2.576,2.7078896,1.43653788380988,2.64433855953081,3.53362972255252,24.1980931,1.638,14.185584,1.62,13.618206
1614,9,0.995,-0.1,2,3,2.5758293035489,0.05,2.576,2.7742231,1.43653788380988,2.64433855953081,3.53362972255252,23.9365215,1.647,13.9782189,1.647,14.2399607
1615,10,0.995,-0.1,2,1,2.5758293035489,0.01,2.5,0.428778,1.43177937640428,2.71386662304498,3.70955744076853,0.0067871,1.4,0.1379373,1.4,0.1361401
1616,10,0.995,-0.1,2,1,2.5758293035489,0.05,2.5,0.4373531,1.43177937640428,2.71386662304498,3.70955744076853,0.0070419,1.5,0.1416956,1.5,0.1369451
1617,10,0.995,-0.1,2,2,2.5758293035489,0.01,2.57,0.5054729,1.52983861358465,2.65112116701583,3.68491465507725,0.1126899,0.93,0.9696544,0.93,0.9809834
1618,10,0.995,-0.1,2,2,2.5758293035489,0.05,2.57,0.5025746,1.52983861358465,2.65112116701583,3.68491465507725,0.092549,1.52,1.3615755,1.52,1.3623581
1619,10,0.995,-0.1,2,3,2.5758293035489,0.01,2.572,2.6293082,1.64600962847602,2.63611887002739,3.69446030693829,24.0910386,0.927,10.1209018,0.927,9.8560291
1620,10,0.995,-0.1,2,3,2.5758293035489,0.05,2.572,2.6255286,1.64600962847602,2.63611887002739,3.69446030693829,24.4688249,1.52,13.3575173,1.52,13.612321
1621,1,0.995,-0.05,0.5,1,2.5758293035489,0.01,1,0.1039135,NaN,NaN,NaN,0.0115308,3.3,0.2737194,3.3,0.252572
1622,1,0.995,-0.05,0.5,1,2.5758293035489,0.05,1.7,0.200641,NaN,NaN,NaN,0.0037945,3.3,0.2536038,3.3,0.2495458
1623,1,0.995,-0.05,0.5,2,2.5758293035489,0.01,1.79,0.3813412,1.85071565541725,2.0349866201271,2.71053417168522,0.0758492,1.96,1.8050489,1.96,1.8168596
1624,1,0.995,-0.05,0.5,2,2.5758293035489,0.05,1.79,0.377445,1.85071565541725,2.0349866201271,2.71053417168522,0.1003131,1.96,1.8093747,1.96,1.8273704
1625,1,0.995,-0.05,0.5,3,2.5758293035489,0.01,1.433,1.9555109,1.85672805820849,2.01511398253302,2.77856751705373,24.6789289,1.906,16.9877508,1.906,17.2827025
1626,1,0.995,-0.05,0.5,3,2.5758293035489,0.05,1.433,1.9699402,1.85672805820849,2.01511398253302,2.77856751705373,24.6272248,1.906,16.9391289,1.906,17.3872644
1627,2,0.995,-0.05,0.5,1,2.5758293035489,0.01,1.6,0.2473645,1.74301884225391,NaN,NaN,0.0067235,3.7,0.2597345,3.7,0.2598321
1628,2,0.995,-0.05,0.5,1,2.5758293035489,0.05,1.6,0.2289104,1.74301884225391,NaN,NaN,0.0059681,3.7,0.2583264,3.7,0.2569062
1629,2,0.995,-0.05,0.5,2,2.5758293035489,0.01,1.63,0.3582539,1.84046755699407,2.15752818416566,2.60905937261627,0.0764049,1.61,1.5855925,1.61,1.5681973
1630,2,0.995,-0.05,0.5,2,2.5758293035489,0.05,1.63,0.374273,1.84046755699407,2.15752818416566,2.60905937261627,0.0956734,1.61,1.5870962,1.61,1.5804908
1631,2,0.995,-0.05,0.5,3,2.5758293035489,0.01,1.329,2.0383722,1.72385588934339,1.81904066061615,2.18300665362334,25.0729003,1.544,15.2696959,1.544,15.6043944
1632,2,0.995,-0.05,0.5,3,2.5758293035489,0.05,1.329,1.9813595,1.72385588934339,1.81904066061615,2.18300665362334,24.880589,1.591,15.5225208,1.591,15.4570161
1633,3,0.995,-0.05,0.5,1,2.5758293035489,0.01,1.7,0.2012478,1.84467456962017,NaN,NaN,0.0052735,3.6,0.2611286,3.6,0.2623555
1634,3,0.995,-0.05,0.5,1,2.5758293035489,0.05,1.7,0.2124365,1.84467456962017,NaN,NaN,0.0052033,3.6,0.2614487,3.6,0.259635
1635,3,0.995,-0.05,0.5,2,2.5758293035489,0.01,1.75,0.4795951,1.86700344888207,3.0082030599812,NaN,0.098695,1.68,1.6260837,1.67,1.8136058
1636,3,0.995,-0.05,0.5,2,2.5758293035489,0.05,1.75,0.4616816,1.86700344888207,3.0082030599812,NaN,0.087585,1.8,1.7447877,1.8,1.6865349
1637,3,0.995,-0.05,0.5,3,2.5758293035489,0.01,1.626,1.9216005,1.86075075054927,2.97169414680929,NaN,25.2203967,1.618,15.4788544,1.618,15.6152657
1638,3,0.995,-0.05,0.5,3,2.5758293035489,0.05,1.626,1.932618,1.86075075054927,2.97169414680929,NaN,24.9848462,1.624,15.4939941,1.618,15.5694168
1639,4,0.995,-0.05,0.5,1,2.5758293035489,0.01,2.7,0.3424206,1.45476060042532,2.62516309508322,NaN,0.005568,3.9,0.281163,3.9,0.2831975
1640,4,0.995,-0.05,0.5,1,2.5758293035489,0.05,2.7,0.3447577,1.45476060042532,2.62516309508322,NaN,0.0061651,3.9,0.2755536,3.9,0.2796098
1641,4,0.995,-0.05,0.5,2,2.5758293035489,0.01,1.61,0.4080155,1.5931628257311,2.54932229867319,NaN,0.0968889,1.55,1.5145676,1.55,1.5165134
1642,4,0.995,-0.05,0.5,2,2.5758293035489,0.05,1.61,0.4031093,1.5931628257311,2.54932229867319,NaN,0.090165,1.56,1.5374415,1.56,1.5197506
1643,4,0.995,-0.05,0.5,3,2.5758293035489,0.01,1.51,1.9374859,1.69333367172557,2.52807541796942,NaN,24.9658285,1.523,14.7307955,1.505,14.6336967
1644,4,0.995,-0.05,0.5,3,2.5758293035489,0.05,1.51,1.8780081,1.69333367172557,2.52807541796942,NaN,24.7581098,1.807,16.1652469,1.523,14.699339
1645,5,0.995,-0.05,0.5,1,2.5758293035489,0.01,1.6,0.2006064,1.8752884511614,NaN,NaN,0.0051338,3.6,0.2552948,3.6,0.2546858
1646,5,0.995,-0.05,0.5,1,2.5758293035489,0.05,1.8,0.3937174,1.8752884511614,NaN,NaN,0.0052289,3.6,0.2613106,3.6,0.2574334
1647,5,0.995,-0.05,0.5,2,2.5758293035489,0.01,1.6,0.4820402,1.86985871395309,2.20817246688995,NaN,0.0810361,1.68,1.6352411,1.68,1.6303541
1648,5,0.995,-0.05,0.5,2,2.5758293035489,0.05,1.91,0.6997804,1.86985871395309,2.20817246688995,NaN,0.1036782,1.68,1.6309074,1.68,1.6221652
1649,5,0.995,-0.05,0.5,3,2.5758293035489,0.01,1.601,1.9351377,1.87584951940807,2.21008891855427,NaN,24.4611422,1.646,16.2671986,1.646,15.8554796
1650,5,0.995,-0.05,0.5,3,2.5758293035489,0.05,1.601,1.9252334,1.87584951940807,2.21008891855427,NaN,24.4269865,1.646,16.1862546,1.646,15.8578138
1651,6,0.995,-0.05,0.5,1,2.5758293035489,0.01,1.4,0.2129481,1.81502449400789,NaN,NaN,0.0049042,3.4,0.2533982,3.4,0.2530427
1652,6,0.995,-0.05,0.5,1,2.5758293035489,0.05,1.7,0.407281,1.81502449400789,NaN,NaN,0.0055035,3.4,0.2601377,3.4,0.2536243
1653,6,0.995,-0.05,0.5,2,2.5758293035489,0.01,1.45,0.4020496,1.70732033866317,1.97228861081247,2.36237475836413,0.0924463,3.42,2.2548284,3.42,2.253606
1654,6,0.995,-0.05,0.5,2,2.5758293035489,0.05,1.45,0.389006,1.70732033866317,1.97228861081247,2.36237475836413,0.0790395,3.42,2.2413648,3.42,2.2212026
1655,6,0.995,-0.05,0.5,3,2.5758293035489,0.01,1.456,1.9694091,1.72573039958329,1.99328558965082,2.35692429534369,24.7839084,3.422,18.5336526,3.422,18.0050069
1656,6,0.995,-0.05,0.5,3,2.5758293035489,0.05,1.456,1.9671977,1.72573039958329,1.99328558965082,2.35692429534369,25.2593381,3.422,18.4535095,3.422,18.0093127
1657,7,0.995,-0.05,0.5,1,2.5758293035489,0.01,1.6,0.1748749,2.09392050818699,NaN,NaN,0.0043339,3.4,0.2512471,3.4,0.2486356
1658,7,0.995,-0.05,0.5,1,2.5758293035489,0.05,1.9,0.373148,2.09392050818699,NaN,NaN,0.0045322,3.4,0.2530211,3.4,0.2606452
1659,7,0.995,-0.05,0.5,2,2.5758293035489,0.01,1.74,0.486189,2.10554304944611,2.41083812168868,NaN,0.0789257,1.82,1.7290064,1.82,1.7198773
1660,7,0.995,-0.05,0.5,2,2.5758293035489,0.05,1.74,0.4758306,2.10554304944611,2.41083812168868,NaN,0.0927414,1.82,1.731288,1.82,1.7243338
1661,7,0.995,-0.05,0.5,3,2.5758293035489,0.01,1.589,1.9292726,1.94328146924432,2.12686340953795,2.42436015923298,25.5676464,1.795,16.9458094,1.795,16.8083894
1662,7,0.995,-0.05,0.5,3,2.5758293035489,0.05,1.589,1.9300141,1.94328146924432,2.12686340953795,2.42436015923298,25.6905287,1.795,17.0818849,1.795,16.5980081
1663,8,0.995,-0.05,0.5,1,2.5758293035489,0.01,1.6,0.2112179,1.89596740826663,NaN,NaN,0.0057778,3.7,0.2524636,3.7,0.2552632
1664,8,0.995,-0.05,0.5,1,2.5758293035489,0.05,1.6,0.1979279,1.89596740826663,NaN,NaN,0.0056278,3.7,0.261007,3.7,0.2611873
1665,8,0.995,-0.05,0.5,2,2.5758293035489,0.01,1.46,0.4744485,1.9413357231733,2.63183353570728,NaN,0.097534,1.64,1.5512739,1.64,1.5771383
1666,8,0.995,-0.05,0.5,2,2.5758293035489,0.05,1.96,0.5945053,1.9413357231733,2.63183353570728,NaN,0.0904782,1.69,1.5959165,1.69,1.6070251
1667,8,0.995,-0.05,0.5,3,2.5758293035489,0.01,1.377,2.0201928,1.97474077176533,2.63556366512421,NaN,25.7086475,1.592,15.656453,1.592,15.1851972
1668,8,0.995,-0.05,0.5,3,2.5758293035489,0.05,1.377,2.0204387,1.97474077176533,2.63556366512421,NaN,25.479303,1.592,15.7070461,1.592,15.2437453
1669,9,0.995,-0.05,0.5,1,2.5758293035489,0.01,1.1,0.0969315,1.94165140237549,NaN,NaN,0.0050715,3.9,0.2591902,3.9,0.2565746
1670,9,0.995,-0.05,0.5,1,2.5758293035489,0.05,1.7,0.2055276,1.94165140237549,NaN,NaN,0.0048904,3.9,0.2545018,3.9,0.2572354
1671,9,0.995,-0.05,0.5,2,2.5758293035489,0.01,1.13,0.2538294,2.01823404250104,2.3909403637935,NaN,0.0867549,1.61,1.5421015,1.61,1.5406892
1672,9,0.995,-0.05,0.5,2,2.5758293035489,0.05,1.13,0.247437,2.01823404250104,2.3909403637935,NaN,0.0877411,1.61,1.5328803,1.61,1.5421392
1673,9,0.995,-0.05,0.5,3,2.5758293035489,0.01,1.133,1.9977124,2.00846587267721,2.40584522113896,2.68309045895813,25.0049569,1.557,15.1082961,1.557,14.694726
1674,9,0.995,-0.05,0.5,3,2.5758293035489,0.05,1.133,2.0016961,2.00846587267721,2.40584522113896,2.68309045895813,24.4560084,1.557,14.8498954,1.557,15.231245
1675,10,0.995,-0.05,0.5,1,2.5758293035489,0.01,1.5,0.1972123,1.89994130143026,NaN,NaN,0.0042519,3.4,0.2515738,3.4,0.261462
1676,10,0.995,-0.05,0.5,1,2.5758293035489,0.05,1.8,0.3858829,1.89994130143026,NaN,NaN,0.004011,3.4,0.2581015,3.4,0.2518458
1677,10,0.995,-0.05,0.5,2,2.5758293035489,0.01,1.48,0.4846339,1.89518631518107,2.49290352327801,3.00423430380938,0.1128795,1.85,1.7518574,1.85,1.7763999
1678,10,0.995,-0.05,0.5,2,2.5758293035489,0.05,1.86,0.6812593,1.89518631518107,2.49290352327801,3.00423430380938,0.1009465,1.85,1.7334659,1.85,1.745507
1679,10,0.995,-0.05,0.5,3,2.5758293035489,0.01,1.455,1.9307953,1.88830061500459,2.47018002662685,2.98727153927306,24.2839298,1.84,16.7838491,1.84,17.1090683
1680,10,0.995,-0.05,0.5,3,2.5758293035489,0.05,1.455,1.9370509,1.88830061500459,2.47018002662685,2.98727153927306,23.9550329,1.84,16.992446,1.84,17.2830763
1681,1,0.995,-0.05,1,1,2.5758293035489,0.01,2.6,0.307995,1.32510727940506,2.7266428889567,NaN,0.0056669,1.6,0.159156,1.6,0.1550793
1682,1,0.995,-0.05,1,1,2.5758293035489,0.05,2.6,0.3076563,1.32510727940506,2.7266428889567,NaN,0.0061403,1.7,0.1626367,1.6,0.1568124
1683,1,0.995,-0.05,1,2,2.5758293035489,0.01,2.64,0.4982496,1.50482925676185,2.67612189771608,NaN,0.099421,1.63,1.4584328,1.13,1.1859694
1684,1,0.995,-0.05,1,2,2.5758293035489,0.05,2.64,0.4655138,1.50482925676185,2.67612189771608,NaN,0.1146558,1.65,1.4759269,1.65,1.4968208
1685,1,0.995,-0.05,1,3,2.5758293035489,0.01,2.636,2.5929939,1.66318591126745,2.67495926422422,NaN,24.7742195,1.115,11.6665622,1.102,11.9085028
1686,1,0.995,-0.05,1,3,2.5758293035489,0.05,2.636,2.6209729,1.66318591126745,2.67495926422422,NaN,24.9406758,1.644,14.1177009,1.114,11.7730821
1687,2,0.995,-0.05,1,1,2.5758293035489,0.01,1.6,0.2383664,1.8491005074977,2.94498216947397,NaN,0.0061869,1.5,0.1536049,1.5,0.1540818
1688,2,0.995,-0.05,1,1,2.5758293035489,0.05,2,0.3630589,1.8491005074977,2.94498216947397,NaN,0.0067416,1.5,0.1528579,1.5,0.1525666
1689,2,0.995,-0.05,1,2,2.5758293035489,0.01,2.01,0.6005229,1.95311734293549,2.89700120835293,NaN,0.081645,1.13,1.2143747,1.13,1.1958006
1690,2,0.995,-0.05,1,2,2.5758293035489,0.05,2.01,0.5862229,1.95311734293549,2.89700120835293,NaN,0.1117168,1.14,1.2111523,1.13,1.1864204
1691,2,0.995,-0.05,1,3,2.5758293035489,0.01,1.595,2.6851096,1.093607456284,1.99954504358553,2.86744336462808,25.1262534,1.134,11.9953198,1.13,12.1735277
1692,2,0.995,-0.05,1,3,2.5758293035489,0.05,2.014,2.8444503,1.093607456284,1.99954504358553,2.86744336462808,25.8596963,1.141,11.9521856,1.134,11.9467851
1693,3,0.995,-0.05,1,1,2.5758293035489,0.01,1.7,0.2224457,1.69108737522836,2.77930211452137,NaN,0.0061893,1.6,0.1601323,1.4,0.1465225
1694,3,0.995,-0.05,1,1,2.5758293035489,0.05,1.7,0.2077198,1.69108737522836,2.77930211452137,NaN,0.0063356,1.7,0.1642249,1.6,0.1566459
1695,3,0.995,-0.05,1,2,2.5758293035489,0.01,1.96,0.615722,1.7824641329456,2.80557599110537,NaN,0.0867525,1.16,1.2355553,1.15,1.2272908
1696,3,0.995,-0.05,1,2,2.5758293035489,0.05,1.96,0.6132533,1.7824641329456,2.80557599110537,NaN,0.0942606,1.16,1.2401192,1.16,1.2371038
1697,3,0.995,-0.05,1,3,2.5758293035489,0.01,1.714,2.4732393,1.85980649015343,2.80199165946154,NaN,25.4367185,1.16,12.4132128,1.154,12.3742947
1698,3,0.995,-0.05,1,3,2.5758293035489,0.05,1.714,2.3894309,1.85980649015343,2.80199165946154,NaN,24.9357874,1.283,13.5425306,1.16,12.333944
1699,4,0.995,-0.05,1,1,2.5758293035489,0.01,1.6,0.2186848,1.70152224048136,2.7720277574832,NaN,0.0061262,1.5,0.1537611,1.5,0.1509379
1700,4,0.995,-0.05,1,1,2.5758293035489,0.05,1.6,0.2049142,1.70152224048136,2.7720277574832,NaN,0.0060865,1.8,0.1702274,1.8,0.1637807
1701,4,0.995,-0.05,1,2,2.5758293035489,0.01,2.61,0.7042575,1.76477397902478,2.7432691003203,NaN,0.0916427,1.17,1.2369399,1.17,1.228813
1702,4,0.995,-0.05,1,2,2.5758293035489,0.05,2.61,0.7115513,1.76477397902478,2.7432691003203,NaN,0.108799,1.51,1.4164242,1.17,1.2298786
1703,4,0.995,-0.05,1,3,2.5758293035489,0.01,1.843,2.2879893,1.8513539831818,2.70741619532638,NaN,24.7378483,1.141,12.1267387,1.139,12.218103
1704,4,0.995,-0.05,1,3,2.5758293035489,0.05,1.843,2.3011879,1.8513539831818,2.70741619532638,NaN,24.4165474,1.508,14.2754357,1.141,12.1365647
1705,5,0.995,-0.05,1,1,2.5758293035489,0.01,1.7,0.2667984,1.56840863850126,2.67531262605936,3.48007194816818,0.0068348,1.4,0.1412222,1.3,0.1317704
1706,5,0.995,-0.05,1,1,2.5758293035489,0.05,2.6,0.4525313,1.56840863850126,2.67531262605936,3.48007194816818,0.0087671,1.4,0.1683339,1.3,0.1437671
1707,5,0.995,-0.05,1,2,2.5758293035489,0.01,1.88,0.542846,1.71543186293286,2.60790976502474,3.42757320281212,0.0980369,1.06,1.1722637,1.06,1.2495203
1708,5,0.995,-0.05,1,2,2.5758293035489,0.05,2.57,0.6205434,1.71543186293286,2.60790976502474,3.42757320281212,0.0966571,1.36,1.3214494,1.06,1.1605009
1709,5,0.995,-0.05,1,3,2.5758293035489,0.01,1.863,2.3345636,1.76889777343753,2.60350366733771,3.44390393599258,25.3003417,1.06,11.3302103,1.035,11.2657028
1710,5,0.995,-0.05,1,3,2.5758293035489,0.05,1.863,2.328894,1.76889777343753,2.60350366733771,3.44390393599258,25.1124841,1.065,11.2305516,1.06,11.126804
1711,6,0.995,-0.05,1,1,2.5758293035489,0.01,1.5,0.2340583,1.82431762932132,2.71422921960409,NaN,0.005337,1.5,0.1515483,1.5,0.1507353
1712,6,0.995,-0.05,1,1,2.5758293035489,0.05,2,0.4258473,1.82431762932132,2.71422921960409,NaN,0.0059316,1.6,0.1655956,1.6,0.1568128
1713,6,0.995,-0.05,1,2,2.5758293035489,0.01,1.49,0.3714921,1.91829995854383,2.66439778795115,NaN,0.0958282,1.29,1.312574,1.13,1.2052682
1714,6,0.995,-0.05,1,2,2.5758293035489,0.05,1.49,0.372163,1.91829995854383,2.66439778795115,NaN,0.1068428,1.31,1.489411,1.31,1.4848302
1715,6,0.995,-0.05,1,3,2.5758293035489,0.01,1.265,1.9977722,1.58779966673224,1.94064880264109,2.65140394651653,24.5326298,1.285,12.9737364,1.139,12.0285305
1716,6,0.995,-0.05,1,3,2.5758293035489,0.05,1.265,1.9140944,1.58779966673224,1.94064880264109,2.65140394651653,24.7760107,1.285,13.3496009,1.285,12.8610001
1717,7,0.995,-0.05,1,1,2.5758293035489,0.01,2.6,0.3393821,1.43359896117844,NaN,NaN,0.0061553,1.6,0.1569833,1.6,0.152098
1718,7,0.995,-0.05,1,1,2.5758293035489,0.05,3.1,0.4517524,1.43359896117844,NaN,NaN,0.005919,1.6,0.1535195,1.6,0.1536683
1719,7,0.995,-0.05,1,2,2.5758293035489,0.01,3,0.8300154,1.58340976747748,3.62869327124723,NaN,0.0940567,1.03,1.131779,1.02,1.1218633
1720,7,0.995,-0.05,1,2,2.5758293035489,0.05,3,0.8206152,1.58340976747748,3.62869327124723,NaN,0.100837,1.62,1.4650017,1.1,1.1824595
1721,7,0.995,-0.05,1,3,2.5758293035489,0.01,2.577,2.5424906,1.67754737126252,3.61919805715215,NaN,23.3426485,1.104,11.9263885,1.099,11.7375513
1722,7,0.995,-0.05,1,3,2.5758293035489,0.05,2.577,2.424427,1.67754737126252,3.61919805715215,NaN,23.1313586,1.623,14.4415906,1.102,11.5832509
1723,8,0.995,-0.05,1,1,2.5758293035489,0.01,1.6,0.2464536,1.74943169740424,2.65609876963653,NaN,0.0058206,1.4,0.1829875,1.4,0.1648568
1724,8,0.995,-0.05,1,1,2.5758293035489,0.05,1.6,0.2864341,1.74943169740424,2.65609876963653,NaN,0.0061882,1.4,0.1469905,1.4,0.2001152
1725,8,0.995,-0.05,1,2,2.5758293035489,0.01,1.66,0.4513985,1.85327529969018,2.59785742586527,NaN,0.1063951,1.16,1.3750287,1.16,1.2909631
1726,8,0.995,-0.05,1,2,2.5758293035489,0.05,1.66,0.4324316,1.85327529969018,2.59785742586527,NaN,0.1083914,1.39,1.3646402,1.16,1.2456837
1727,8,0.995,-0.05,1,3,2.5758293035489,0.01,2.02,2.3593986,1.94037087580548,2.58429633185555,NaN,26.2005612,1.165,12.4474247,1.161,12.3514665
1728,8,0.995,-0.05,1,3,2.5758293035489,0.05,2.02,2.3828762,1.94037087580548,2.58429633185555,NaN,25.6265652,1.391,13.4888618,1.391,13.8681807
1729,9,0.995,-0.05,1,1,2.5758293035489,0.01,1.4,0.2162735,1.87155724017675,2.74298955393993,NaN,0.0082781,1.3,0.1392385,1.3,0.1329055
1730,9,0.995,-0.05,1,1,2.5758293035489,0.05,1.8,0.3348256,1.87155724017675,2.74298955393993,NaN,0.0062661,1.5,0.1517146,1.3,0.1381905
1731,9,0.995,-0.05,1,2,2.5758293035489,0.01,1.89,0.5991335,1.94625640626488,2.69567100506013,3.63443330255651,0.0977442,1.05,1.1348457,1.05,1.1401045
1732,9,0.995,-0.05,1,2,2.5758293035489,0.05,1.89,0.6005041,1.94625640626488,2.69567100506013,3.63443330255651,0.1148626,1.13,1.1843008,1.12,1.1922991
1733,9,0.995,-0.05,1,3,2.5758293035489,0.01,1.852,2.3420781,2.0209786266592,2.66843638005899,3.65411050066554,25.2454375,1.123,11.7731382,1.108,11.6712257
1734,9,0.995,-0.05,1,3,2.5758293035489,0.05,1.852,2.33398,2.0209786266592,2.66843638005899,3.65411050066554,25.3197916,1.13,11.8270837,1.123,11.7719372
1735,10,0.995,-0.05,1,1,2.5758293035489,0.01,1.6,0.2354785,1.77948228841356,NaN,NaN,0.0052206,1.5,0.1535043,1.5,0.1498766
1736,10,0.995,-0.05,1,1,2.5758293035489,0.05,1.6,0.2281737,1.77948228841356,NaN,NaN,0.0052559,1.5,0.1515106,1.5,0.1473596
1737,10,0.995,-0.05,1,2,2.5758293035489,0.01,1.99,0.5758687,1.88042114778749,3.21099039054046,NaN,0.105894,1.45,1.3912761,1.18,1.2317189
1738,10,0.995,-0.05,1,2,2.5758293035489,0.05,1.99,0.5851691,1.88042114778749,3.21099039054046,NaN,0.0803125,1.45,1.3938548,1.45,1.3892358
1739,10,0.995,-0.05,1,3,2.5758293035489,0.01,1.694,2.2510989,1.93401214987854,3.20239174737043,NaN,23.7163511,1.169,12.6522373,1.169,12.2749389
1740,10,0.995,-0.05,1,3,2.5758293035489,0.05,1.694,2.2219651,1.93401214987854,3.20239174737043,NaN,23.0064127,1.452,13.9477897,1.169,12.6409227
1741,1,0.995,-0.05,2,1,2.5758293035489,0.01,1.6,0.2942061,1.61000742496437,4.25986082657653,NaN,0.0075308,1.3,0.1327612,1.3,0.1313372
1742,1,0.995,-0.05,2,1,2.5758293035489,0.05,1.6,0.2883507,1.61000742496437,4.25986082657653,NaN,0.0074221,1.3,0.1327369,1.3,0.1279102
1743,1,0.995,-0.05,2,2,2.5758293035489,0.01,1.72,0.4726878,1.6621706998742,3.57531859308364,4.23811477388504,0.0913826,1.31,1.2320272,1.31,1.2355374
1744,1,0.995,-0.05,2,2,2.5758293035489,0.05,2.57,0.622121,1.6621706998742,3.57531859308364,4.23811477388504,0.1029412,1.32,1.2451733,1.32,1.2383702
1745,1,0.995,-0.05,2,3,2.5758293035489,0.01,1.731,2.3717346,1.70789632024387,3.57104106434026,4.22679718566001,24.788948,1.311,12.5659995,1.311,12.3271838
1746,1,0.995,-0.05,2,3,2.5758293035489,0.05,1.731,2.5367405,1.70789632024387,3.57104106434026,4.22679718566001,24.953603,1.318,12.3335122,1.318,12.6287767
1747,2,0.995,-0.05,2,1,2.5758293035489,0.01,2.6,0.5475722,1.60072621585903,2.74633319738308,3.57500815844436,0.0081412,1.3,0.1268602,1.3,0.1238119
1748,2,0.995,-0.05,2,1,2.5758293035489,0.05,2.6,0.5547569,1.60072621585903,2.74633319738308,3.57500815844436,0.0072932,1.3,0.1259032,1.3,0.1255392
1749,2,0.995,-0.05,2,2,2.5758293035489,0.01,2.64,0.5149281,1.71934885269542,2.70295345035139,3.59583999607905,0.0969366,1.31,1.2162782,1.3,1.2208833
1750,2,0.995,-0.05,2,2,2.5758293035489,0.05,2.64,0.5243959,1.71934885269542,2.70295345035139,3.59583999607905,0.0874706,1.31,1.208094,1.31,1.2135238
1751,2,0.995,-0.05,2,3,2.5758293035489,0.01,1.904,2.7939075,1.78274393243534,2.69770563640083,3.59050951789615,25.5551868,1.303,12.028989,1.288,12.0863286
1752,2,0.995,-0.05,2,3,2.5758293035489,0.05,2.607,3.0705983,1.78274393243534,2.69770563640083,3.59050951789615,25.9085071,1.304,12.1578899,1.304,12.0553834
1753,3,0.995,-0.05,2,1,2.5758293035489,0.01,2.6,0.415677,1.35841954987975,2.66277892120711,4.40320399794087,0.0076474,1.4,0.134994,1.4,0.1327724
1754,3,0.995,-0.05,2,1,2.5758293035489,0.05,2.6,0.4206151,1.35841954987975,2.66277892120711,4.40320399794087,0.0069574,1.7,0.1546253,1.7,0.1518114
1755,3,0.995,-0.05,2,2,2.5758293035489,0.01,2.56,0.4981799,1.44761718915109,2.63674701958255,3.10501702481691,0.0821111,1.41,1.2878613,1.41,1.2816475
1756,3,0.995,-0.05,2,2,2.5758293035489,0.05,2.56,0.5197298,1.44761718915109,2.63674701958255,3.10501702481691,0.104287,1.73,1.4714016,1.73,1.4740346
1757,3,0.995,-0.05,2,3,2.5758293035489,0.01,2.559,2.630038,1.61904631664911,2.62209445145135,3.06654197105337,24.19199,1.408,12.6926574,1.408,12.5760832
1758,3,0.995,-0.05,2,3,2.5758293035489,0.05,2.559,2.5981116,1.61904631664911,2.62209445145135,3.06654197105337,23.9733856,1.523,13.5436256,1.523,13.2166883
1759,4,0.995,-0.05,2,1,2.5758293035489,0.01,1.5,0.2706785,1.76027653909555,2.74255093907339,3.6651061658906,0.0068282,1.3,0.1306917,1.3,0.1354088
1760,4,0.995,-0.05,2,1,2.5758293035489,0.05,1.9,0.4782837,1.76027653909555,2.74255093907339,3.6651061658906,0.0068289,1.3,0.1310961,1.3,0.1288118
1761,4,0.995,-0.05,2,2,2.5758293035489,0.01,1.94,0.3761633,1.84556991804293,2.67480226394866,3.06588211233712,0.1055567,1.02,1.0897266,1,1.0311404
1762,4,0.995,-0.05,2,2,2.5758293035489,0.05,1.94,0.3744263,1.84556991804293,2.67480226394866,3.06588211233712,0.0855001,1.31,1.2017545,1.31,1.2069246
1763,4,0.995,-0.05,2,3,2.5758293035489,0.01,1.583,2.3766004,1.90390658736949,2.67023864208976,3.05597575256815,24.6391661,1.021,10.4121906,1.021,10.7865116
1764,4,0.995,-0.05,2,3,2.5758293035489,0.05,1.947,2.7024559,1.90390658736949,2.67023864208976,3.05597575256815,24.6957427,1.303,12.0643014,1.296,12.268159
1765,5,0.995,-0.05,2,1,2.5758293035489,0.01,1.6,0.2760433,1.60388837096372,NaN,NaN,0.0071976,1.5,0.1415357,1.4,0.1439262
1766,5,0.995,-0.05,2,1,2.5758293035489,0.05,2.6,0.4357717,1.60388837096372,NaN,NaN,0.0078891,1.5,0.1382004,1.5,0.1387338
1767,5,0.995,-0.05,2,2,2.5758293035489,0.01,2.62,0.4744022,1.66880203782182,2.64170730135974,3.9193272144936,0.0887346,1.4,1.2855708,1.4,1.2779894
1768,5,0.995,-0.05,2,2,2.5758293035489,0.05,2.62,0.4713789,1.66880203782182,2.64170730135974,3.9193272144936,0.0897752,1.54,1.3685058,1.54,1.3494744
1769,5,0.995,-0.05,2,3,2.5758293035489,0.01,1.586,2.5666294,1.71110335647195,2.61883329657938,3.93663977327702,24.5850825,1.393,12.8203505,1.393,13.0558388
1770,5,0.995,-0.05,2,3,2.5758293035489,0.05,1.586,2.3926461,1.71110335647195,2.61883329657938,3.93663977327702,24.6275664,1.524,13.3955735,1.494,13.1296555
1771,6,0.995,-0.05,2,1,2.5758293035489,0.01,2.5,0.4277702,1.46917834365481,3.15902329500569,NaN,0.0072972,1.3,0.1307606,1.3,0.1280845
1772,6,0.995,-0.05,2,1,2.5758293035489,0.05,2.5,0.4267402,1.46917834365481,3.15902329500569,NaN,0.0079304,1.3,0.1273197,1.3,0.1301082
1773,6,0.995,-0.05,2,2,2.5758293035489,0.01,2.56,0.4829105,1.5481220816167,2.82153112570766,4.32392462731253,0.097095,1.3,1.2315496,1.29,1.2135779
1774,6,0.995,-0.05,2,2,2.5758293035489,0.05,2.56,0.4833957,1.5481220816167,2.82153112570766,4.32392462731253,0.0855763,1.32,1.2600016,1.3,1.3614706
1775,6,0.995,-0.05,2,3,2.5758293035489,0.01,2.555,2.3575908,1.64435206387331,2.79707110953524,4.32364069576339,25.2441301,1.298,12.1744027,1.29,12.076713
1776,6,0.995,-0.05,2,3,2.5758293035489,0.05,2.555,2.2642843,1.64435206387331,2.79707110953524,4.32364069576339,25.0988451,1.315,12.6999944,1.298,12.0632456
1777,7,0.995,-0.05,2,1,2.5758293035489,0.01,2.6,0.4156547,1.40860019565605,2.75748631312045,3.43842786729476,0.0076712,1.5,0.1440801,1.5,0.1424467
1778,7,0.995,-0.05,2,1,2.5758293035489,0.05,2.6,0.4143531,1.40860019565605,2.75748631312045,3.43842786729476,0.0085238,1.5,0.1421648,1.5,0.140308
1779,7,0.995,-0.05,2,2,2.5758293035489,0.01,2.66,0.4995928,1.49922269575472,2.68134740856286,3.45001499553684,0.0933547,1.46,1.313126,1.46,1.3538082
1780,7,0.995,-0.05,2,2,2.5758293035489,0.05,2.66,0.4822057,1.49922269575472,2.68134740856286,3.45001499553684,0.1007304,1.48,1.3367787,1.48,1.3313713
1781,7,0.995,-0.05,2,3,2.5758293035489,0.01,2.646,2.7195645,1.57532192421599,2.67372562235892,3.44950772978586,24.8902754,1.461,13.3123458,1.461,13.1964626
1782,7,0.995,-0.05,2,3,2.5758293035489,0.05,2.646,2.7295638,1.57532192421599,2.67372562235892,3.44950772978586,24.716389,1.477,13.4171966,1.477,13.398076
1783,8,0.995,-0.05,2,1,2.5758293035489,0.01,4.3,0.7067194,1.53182786443773,2.90353363311754,3.97374928918169,0.0099995,1.4,0.1940747,1.4,0.1329238
1784,8,0.995,-0.05,2,1,2.5758293035489,0.05,4.3,0.6409406,1.53182786443773,2.90353363311754,3.97374928918169,0.0080566,1.5,0.1409677,1.5,0.1405336
1785,8,0.995,-0.05,2,2,2.5758293035489,0.01,2.78,0.453069,1.6424969868572,2.92538971074562,4.02686142814737,0.0817989,1.39,1.2966431,0.93,0.9718352
1786,8,0.995,-0.05,2,2,2.5758293035489,0.05,2.78,0.446542,1.6424969868572,2.92538971074562,4.02686142814737,0.1086442,1.53,1.3593003,1.39,1.2962856
1787,8,0.995,-0.05,2,3,2.5758293035489,0.01,2.57,2.8007088,1.74463499900718,2.92561814438591,4.02632507076543,24.173263,1.385,13.1052736,0.927,9.7665897
1788,8,0.995,-0.05,2,3,2.5758293035489,0.05,4.329,2.9634404,1.74463499900718,2.92561814438591,4.02632507076543,24.6647484,1.527,13.4894543,1.392,12.9559366
1789,9,0.995,-0.05,2,1,2.5758293035489,0.01,2.5,0.3717138,1.28076072896594,2.65519398038508,3.98503183644482,0.0072499,1.4,0.1378675,1.4,0.1338135
1790,9,0.995,-0.05,2,1,2.5758293035489,0.05,2.5,0.3618878,1.28076072896594,2.65519398038508,3.98503183644482,0.0074071,1.5,0.1442827,1.4,0.1346358
1791,9,0.995,-0.05,2,2,2.5758293035489,0.01,2.55,0.4105489,1.37071900264034,2.6205745286087,4.07534514127261,0.1305346,1.42,1.2820078,1.33,1.2474234
1792,9,0.995,-0.05,2,2,2.5758293035489,0.05,2.55,0.4296775,1.37071900264034,2.6205745286087,4.07534514127261,0.1083084,1.5,1.327798,1.42,1.2904493
1793,9,0.995,-0.05,2,3,2.5758293035489,0.01,2.554,2.5131435,1.49021603677671,2.60933626688969,4.0883413629115,25.122345,1.415,12.649978,1.295,11.9868641
1794,9,0.995,-0.05,2,3,2.5758293035489,0.05,2.554,2.5505846,1.49021603677671,2.60933626688969,4.0883413629115,25.2352897,1.493,13.0271554,1.415,12.6187319
1795,10,0.995,-0.05,2,1,2.5758293035489,0.01,2.5,0.3519229,1.31438218745295,2.64910718954376,NaN,0.0074616,1.6,0.1472992,1.6,0.1464884
1796,10,0.995,-0.05,2,1,2.5758293035489,0.05,2.5,0.3476768,1.31438218745295,2.64910718954376,NaN,0.0074748,1.8,0.1600635,1.8,0.1566314
1797,10,0.995,-0.05,2,2,2.5758293035489,0.01,2.57,0.5146183,1.41593186548534,2.6124162909864,4.42446497777273,0.1067604,1.6,1.4023859,1.61,1.3981522
1798,10,0.995,-0.05,2,2,2.5758293035489,0.05,2.57,0.495369,1.41593186548534,2.6124162909864,4.42446497777273,0.1188224,1.83,1.5192073,1.83,1.5764721
1799,10,0.995,-0.05,2,3,2.5758293035489,0.01,2.569,2.6508432,1.5568458599981,2.60415587419183,4.44175317918289,26.3099173,1.595,13.7097428,1.595,13.6582943
1800,10,0.995,-0.05,2,3,2.5758293035489,0.05,2.569,2.5904811,1.5568458599981,2.60415587419183,4.44175317918289,26.1112371,1.604,14.1821458,1.817,14.8768933
1801,1,0.995,0,0.5,1,2.5758293035489,0.01,1.5,0.2132086,NaN,NaN,NaN,0.0029082,3.5,0.2514902,3.5,0.2557352
1802,1,0.995,0,0.5,1,2.5758293035489,0.05,1.5,0.1928572,NaN,NaN,NaN,0.0046965,3.5,0.2562348,3.5,0.249724
1803,1,0.995,0,0.5,2,2.5758293035489,0.01,1.51,0.5284339,2.05231740961418,2.55744300664067,NaN,0.0907643,1.87,1.7237224,1.87,1.7252073
1804,1,0.995,0,0.5,2,2.5758293035489,0.05,1.51,0.489343,2.05231740961418,2.55744300664067,NaN,0.0949424,1.87,1.7101891,1.87,1.732312
1805,1,0.995,0,0.5,3,2.5758293035489,0.01,1.512,1.8799644,1.52321352856295,2.07367382989245,2.54204662640116,24.8753829,1.85,16.912217,1.85,16.3656484
1806,1,0.995,0,0.5,3,2.5758293035489,0.05,1.512,1.8887431,1.52321352856295,2.07367382989245,2.54204662640116,24.6422549,1.851,16.8193398,1.851,16.5055986
1807,2,0.995,0,0.5,1,2.5758293035489,0.01,1.7,0.2180989,2.32462205927182,NaN,NaN,0.0050498,3.5,0.2587907,3.5,0.2489703
1808,2,0.995,0,0.5,1,2.5758293035489,0.05,1.7,0.2094247,2.32462205927182,NaN,NaN,0.0049016,3.5,0.2543788,3.5,0.2509061
1809,2,0.995,0,0.5,2,2.5758293035489,0.01,1.68,0.366436,1.70684388950198,2.24757441815205,NaN,0.0961116,1.67,1.6143655,1.67,1.5871798
1810,2,0.995,0,0.5,2,2.5758293035489,0.05,1.68,0.3621165,1.70684388950198,2.24757441815205,NaN,0.0860364,1.67,1.5821843,1.67,1.5963271
1811,2,0.995,0,0.5,3,2.5758293035489,0.01,1.375,1.9782687,1.71825357050433,2.05970693298348,2.25519668640675,24.562084,1.652,15.8859424,1.652,15.3596104
1812,2,0.995,0,0.5,3,2.5758293035489,0.05,1.375,1.9376957,1.71825357050433,2.05970693298348,2.25519668640675,24.8027131,1.652,15.7106379,1.652,15.7192175
1813,3,0.995,0,0.5,1,2.5758293035489,0.01,3,0.30051,1.29306110710206,NaN,NaN,0.0052708,1.8,0.173229,1.8,0.17222
1814,3,0.995,0,0.5,1,2.5758293035489,0.05,3,0.2923793,1.29306110710206,NaN,NaN,0.0057576,1.8,0.1734303,1.8,0.172567
1815,3,0.995,0,0.5,2,2.5758293035489,0.01,3.09,0.7128253,1.58816906359894,3.24220581266559,NaN,0.1011809,1.69,1.5603667,1.69,1.5681221
1816,3,0.995,0,0.5,2,2.5758293035489,0.05,3.09,0.7066147,1.58816906359894,3.24220581266559,NaN,0.1054053,1.69,1.5620322,1.69,1.5546527
1817,3,0.995,0,0.5,3,2.5758293035489,0.01,1.767,2.4239341,1.15274916695453,1.68180080710712,2.2485506902595,24.5099763,1.685,15.1369052,1.685,15.386473
1818,3,0.995,0,0.5,3,2.5758293035489,0.05,1.767,2.423688,1.15274916695453,1.68180080710712,2.2485506902595,24.7749285,1.685,15.2315623,1.685,15.4006502
1819,4,0.995,0,0.5,1,2.5758293035489,0.01,2,0.227973,NaN,NaN,NaN,0.0031903,2.1,0.1959294,2.1,0.1910979
1820,4,0.995,0,0.5,1,2.5758293035489,0.05,2,0.2257886,NaN,NaN,NaN,0.0028019,2.1,0.1931418,2.1,0.1892261
1821,4,0.995,0,0.5,2,2.5758293035489,0.01,2.2,0.5696247,1.07369347361356,1.26818815115591,2.37129494373535,0.0775734,1.86,1.7159353,1.86,1.7087282
1822,4,0.995,0,0.5,2,2.5758293035489,0.05,2.2,0.570797,1.07369347361356,1.26818815115591,2.37129494373535,0.1012067,1.86,1.7173503,1.86,1.7012439
1823,4,0.995,0,0.5,3,2.5758293035489,0.01,0.899,1.3383028,0.952343940801314,2.33977963469172,NaN,25.3768185,1.85,16.4378619,1.85,16.7278878
1824,4,0.995,0,0.5,3,2.5758293035489,0.05,0.899,1.3614898,0.952343940801314,2.33977963469172,NaN,25.3355024,1.85,16.4054691,1.85,16.3835466
1825,5,0.995,0,0.5,1,2.5758293035489,0.01,1.7,0.2214972,1.670209677999,NaN,NaN,0.0057473,3.7,0.293039,3.7,0.2789434
1826,5,0.995,0,0.5,1,2.5758293035489,0.05,1.7,0.2029342,1.670209677999,NaN,NaN,0.0068287,3.7,0.310309,3.7,0.260546
1827,5,0.995,0,0.5,2,2.5758293035489,0.01,1.77,0.5174842,1.75618072140049,2.76931146065037,NaN,0.0884167,1.75,1.8017851,1.75,1.7006636
1828,5,0.995,0,0.5,2,2.5758293035489,0.05,1.77,0.4825325,1.75618072140049,2.76931146065037,NaN,0.0964621,1.75,1.6822783,1.75,1.6764768
1829,5,0.995,0,0.5,3,2.5758293035489,0.01,1.488,2.0306046,1.73683693614827,1.97714796134757,2.73129305190215,25.1679329,1.724,16.4537563,1.724,16.7318821
1830,5,0.995,0,0.5,3,2.5758293035489,0.05,1.488,2.0178291,1.73683693614827,1.97714796134757,2.73129305190215,25.4539881,1.732,16.7591945,1.724,16.5408617
1831,6,0.995,0,0.5,1,2.5758293035489,0.01,1.9,0.2360525,NaN,NaN,NaN,0.0028104,3.5,0.2713733,3.5,0.2971511
1832,6,0.995,0,0.5,1,2.5758293035489,0.05,1.9,0.1956303,NaN,NaN,NaN,0.0028098,3.5,0.3125433,3.5,0.2511453
1833,6,0.995,0,0.5,2,2.5758293035489,0.01,1.06,0.256013,2.3142208664138,2.86148464322349,NaN,0.1083432,1.71,1.687589,1.71,1.7254645
1834,6,0.995,0,0.5,2,2.5758293035489,0.05,1.87,0.3960391,2.3142208664138,2.86148464322349,NaN,0.0964625,1.71,1.6304194,1.71,1.6192094
1835,6,0.995,0,0.5,3,2.5758293035489,0.01,1.12,1.3055176,1.8737161627866,2.27961573136051,2.86367226016769,25.0564431,1.656,15.9156654,1.656,16.0157551
1836,6,0.995,0,0.5,3,2.5758293035489,0.05,1.12,1.3457602,1.8737161627866,2.27961573136051,2.86367226016769,25.1988456,1.656,15.6338652,1.656,15.8201388
1837,7,0.995,0,0.5,1,2.5758293035489,0.01,1.6,0.1953209,NaN,NaN,NaN,0.0035821,3.6,0.2468875,3.6,0.2498972
1838,7,0.995,0,0.5,1,2.5758293035489,0.05,1.6,0.1966873,NaN,NaN,NaN,0.0028008,3.6,0.2487121,3.6,0.2452993
1839,7,0.995,0,0.5,2,2.5758293035489,0.01,1.64,0.4706965,2.46998294160976,2.88620382388448,NaN,0.0878876,1.8,1.7070337,1.8,1.7468423
1840,7,0.995,0,0.5,2,2.5758293035489,0.05,1.64,0.561711,2.46998294160976,2.88620382388448,NaN,0.0850765,1.81,1.8559181,1.81,1.8827087
1841,7,0.995,0,0.5,3,2.5758293035489,0.01,1.646,1.8600037,1.77675477243696,2.46902574078913,NaN,24.0994097,1.763,16.3887051,1.763,16.459073
1842,7,0.995,0,0.5,3,2.5758293035489,0.05,1.646,1.8635799,1.77675477243696,2.46902574078913,NaN,24.2629505,1.763,16.2833369,1.763,16.5093278
1843,8,0.995,0,0.5,1,2.5758293035489,0.01,1.5,0.186869,NaN,NaN,NaN,0.002836,2.3,0.2062439,2.3,0.2241344
1844,8,0.995,0,0.5,1,2.5758293035489,0.05,2.1,0.2957684,NaN,NaN,NaN,0.0034708,2.3,0.2008338,2.3,0.2042494
1845,8,0.995,0,0.5,2,2.5758293035489,0.01,1.55,0.4600408,2.71028273456012,NaN,NaN,0.076783,1.83,1.7462188,1.83,1.7689411
1846,8,0.995,0,0.5,2,2.5758293035489,0.05,1.55,0.4726545,2.71028273456012,NaN,NaN,0.1035107,1.83,1.7331937,1.83,1.7702111
1847,8,0.995,0,0.5,3,2.5758293035489,0.01,1.379,2.0117267,1.89732085108558,2.36360665256279,2.53916089920539,24.5571958,1.817,16.6677503,1.817,16.6740601
1848,8,0.995,0,0.5,3,2.5758293035489,0.05,1.379,1.9127782,1.89732085108558,2.36360665256279,2.53916089920539,24.1214806,1.817,16.4577953,1.817,16.7487398
1849,9,0.995,0,0.5,1,2.5758293035489,0.01,1.8,0.2204756,2.02213673064959,NaN,NaN,0.0055359,2.1,0.1983912,2.1,0.1921758
1850,9,0.995,0,0.5,1,2.5758293035489,0.05,1.8,0.2086688,2.02213673064959,NaN,NaN,0.0057264,2.2,0.2025025,2.1,0.1930407
1851,9,0.995,0,0.5,2,2.5758293035489,0.01,1.96,0.6237712,2.13054675008001,NaN,NaN,0.0769204,1.72,1.6651035,1.72,1.6546724
1852,9,0.995,0,0.5,2,2.5758293035489,0.05,1.96,0.6001139,2.13054675008001,NaN,NaN,0.0879571,1.72,1.6619014,1.72,1.6792091
1853,9,0.995,0,0.5,3,2.5758293035489,0.01,1.455,2.0171695,1.4447494409172,2.16639115807545,2.86744485322998,25.4299122,1.71,16.2095936,1.704,16.5103945
1854,9,0.995,0,0.5,3,2.5758293035489,0.05,1.455,2.0021297,1.4447494409172,2.16639115807545,2.86744485322998,25.2818358,1.71,16.412483,1.71,16.5509706
1855,10,0.995,0,0.5,1,2.5758293035489,0.01,1.5,0.2234451,1.7485743739095,2.55619954250072,NaN,0.0060858,1.9,0.1778527,1.9,0.1804083
1856,10,0.995,0,0.5,1,2.5758293035489,0.05,2,0.4129853,1.7485743739095,2.55619954250072,NaN,0.0055918,1.9,0.1844178,1.9,0.1774837
1857,10,0.995,0,0.5,2,2.5758293035489,0.01,1.57,0.3698004,1.73050112051794,2.50598221384007,3.05161257530782,0.1089903,1.39,1.4294104,1.39,1.4362507
1858,10,0.995,0,0.5,2,2.5758293035489,0.05,2.04,0.5887812,1.73050112051794,2.50598221384007,3.05161257530782,0.0976277,1.43,1.4667773,1.41,1.4376172
1859,10,0.995,0,0.5,3,2.5758293035489,0.01,1.359,1.9199548,1.73633582529313,2.47388774753287,3.05421102944558,25.0643719,1.387,14.2056671,1.376,14.2309988
1860,10,0.995,0,0.5,3,2.5758293035489,0.05,1.359,2.0086539,1.73633582529313,2.47388774753287,3.05421102944558,24.8411828,1.416,14.2076169,1.387,14.0381486
1861,1,0.995,0,1,1,2.5758293035489,0.01,1.7,0.2470832,1.58162055989095,NaN,NaN,0.0065529,1.4,0.1407383,1.4,0.1398975
1862,1,0.995,0,1,1,2.5758293035489,0.05,1.7,0.2372421,1.58162055989095,NaN,NaN,0.006272,1.9,0.1663294,1.8,0.1628781
1863,1,0.995,0,1,2,2.5758293035489,0.01,2.55,0.5921348,1.66430519424596,2.58485539947405,NaN,0.0994839,1.43,1.3352647,1.08,1.1167583
1864,1,0.995,0,1,2,2.5758293035489,0.05,2.55,0.5957361,1.66430519424596,2.58485539947405,NaN,0.1109602,1.51,1.3695561,1.56,1.4026742
1865,1,0.995,0,1,3,2.5758293035489,0.01,1.92,2.4155051,1.73432329425505,2.57703276175773,NaN,25.3765081,1.425,13.1259814,1.046,10.9658793
1866,1,0.995,0,1,3,2.5758293035489,0.05,1.92,2.2534457,1.73432329425505,2.57703276175773,NaN,25.3154822,1.495,13.8142089,1.561,13.6231867
1867,2,0.995,0,1,1,2.5758293035489,0.01,1.5,0.1992411,1.83058147371664,NaN,NaN,0.0052161,1.6,0.157519,1.6,0.1534359
1868,2,0.995,0,1,1,2.5758293035489,0.05,2,0.3538626,1.83058147371664,NaN,NaN,0.0054173,1.6,0.1601611,1.6,0.1547093
1869,2,0.995,0,1,2,2.5758293035489,0.01,1.52,0.4872271,1.99295136663944,2.71370456053208,NaN,0.1017821,1.23,1.2611624,1.23,1.2606475
1870,2,0.995,0,1,2,2.5758293035489,0.05,2.07,0.5637112,1.99295136663944,2.71370456053208,NaN,0.086663,1.38,1.3648788,1.36,1.3386629
1871,2,0.995,0,1,3,2.5758293035489,0.01,1.705,2.3387206,1.83218228271258,2.04578945667639,2.70187586237447,23.7063506,1.2,12.5518474,1.2,12.661619
1872,2,0.995,0,1,3,2.5758293035489,0.05,1.705,2.314011,1.83218228271258,2.04578945667639,2.70187586237447,23.913329,1.2,12.6180661,1.2,12.37857
1873,3,0.995,0,1,1,2.5758293035489,0.01,1.6,0.253873,1.55662535726373,3.12655212027318,NaN,0.0084581,1.4,0.1451039,1.4,0.1791435
1874,3,0.995,0,1,1,2.5758293035489,0.05,2.5,0.4476278,1.55662535726373,3.12655212027318,NaN,0.0067236,1.4,0.1447788,1.4,0.1727625
1875,3,0.995,0,1,2,2.5758293035489,0.01,2.57,0.6612268,1.62984721317585,3.18451195750177,NaN,0.0979657,1.38,1.4272912,1.04,1.2357205
1876,3,0.995,0,1,2,2.5758293035489,0.05,2.57,0.6123999,1.62984721317585,3.18451195750177,NaN,0.1018773,1.4,1.3362991,1.4,1.327242
1877,3,0.995,0,1,3,2.5758293035489,0.01,1.732,2.4569775,1.68465394045398,3.17454272142485,NaN,25.5182822,1.058,11.2580544,1.048,11.2182844
1878,3,0.995,0,1,3,2.5758293035489,0.05,1.732,2.4622059,1.68465394045398,3.17454272142485,NaN,25.9233111,1.394,13.0546891,1.074,11.1719865
1879,4,0.995,0,1,1,2.5758293035489,0.01,2.5,0.3590446,1.58602000230883,NaN,NaN,0.0059906,1.5,0.1564342,1.4,0.1460222
1880,4,0.995,0,1,1,2.5758293035489,0.05,2.5,0.3551317,1.58602000230883,NaN,NaN,0.0059732,1.7,0.1622276,1.7,0.1631813
1881,4,0.995,0,1,2,2.5758293035489,0.01,2.57,0.7023522,1.72196434744903,2.62046869325744,3.38052816669306,0.0988759,1.3,1.4100577,1.29,1.3383414
1882,4,0.995,0,1,2,2.5758293035489,0.05,2.57,0.6976018,1.72196434744903,2.62046869325744,3.38052816669306,0.0854781,1.3,1.2931257,1.3,1.2926714
1883,4,0.995,0,1,3,2.5758293035489,0.01,1.77,2.3671844,1.77957280494177,2.60222863824419,3.37209489362447,24.5955145,1.141,11.855321,1.14,11.869916
1884,4,0.995,0,1,3,2.5758293035489,0.05,1.77,2.3429308,1.77957280494177,2.60222863824419,3.37209489362447,24.4393549,1.141,12.4278306,1.14,11.9590785
1885,5,0.995,0,1,1,2.5758293035489,0.01,1.6,0.2498266,NaN,NaN,NaN,0.0043865,1.4,0.1408545,1.3,0.1379706
1886,5,0.995,0,1,1,2.5758293035489,0.05,2.5,0.6024266,NaN,NaN,NaN,0.0049809,1.4,0.1425304,1.4,0.1387189
1887,5,0.995,0,1,2,2.5758293035489,0.01,1.64,0.3843607,1.93164865712223,2.61562596020112,3.28041933092976,0.0871308,1.05,1.1075916,1.03,1.098488
1888,5,0.995,0,1,2,2.5758293035489,0.05,2.07,0.4784934,1.93164865712223,2.61562596020112,3.28041933092976,0.1243628,1.06,1.1286801,1.05,1.1068553
1889,5,0.995,0,1,3,2.5758293035489,0.01,1.645,2.4514478,1.20822301166836,1.96841835330788,2.5941533539876,24.5202678,1.029,11.1329053,1.029,11.1858041
1890,5,0.995,0,1,3,2.5758293035489,0.05,1.645,2.4749907,1.20822301166836,1.96841835330788,2.5941533539876,24.4517751,1.056,11.4798421,1.056,11.1426419
1891,6,0.995,0,1,1,2.5758293035489,0.01,2.6,0.3563322,1.54052847672169,NaN,NaN,0.0056642,1.4,0.1459083,1.3,0.1368582
1892,6,0.995,0,1,1,2.5758293035489,0.05,2.6,0.3626569,1.54052847672169,NaN,NaN,0.0056866,1.9,0.1705705,1.4,0.1435489
1893,6,0.995,0,1,2,2.5758293035489,0.01,2.69,0.6986376,1.71271224590705,NaN,NaN,0.0793086,1.11,1.2493377,1.1,1.2501368
1894,6,0.995,0,1,2,2.5758293035489,0.05,2.69,0.7607222,1.71271224590705,NaN,NaN,0.0889331,1.11,1.3004148,1.11,1.2418954
1895,6,0.995,0,1,3,2.5758293035489,0.01,1.727,2.3925816,1.72916849966919,NaN,NaN,25.4600727,1.113,11.5468511,1.101,11.8799877
1896,6,0.995,0,1,3,2.5758293035489,0.05,1.727,2.3636997,1.72916849966919,NaN,NaN,25.0840416,1.118,11.5985281,1.118,11.5469821
1897,7,0.995,0,1,1,2.5758293035489,0.01,2.6,0.3147201,1.26940682735775,NaN,NaN,0.0056472,1.8,0.1747232,1.8,0.1764593
1898,7,0.995,0,1,1,2.5758293035489,0.05,2.6,0.3095691,1.26940682735775,NaN,NaN,0.0055256,1.8,0.175995,1.8,0.1809811
1899,7,0.995,0,1,2,2.5758293035489,0.01,2.7,0.6843885,1.45460152033635,NaN,NaN,0.0846727,1.8,1.6113263,1.38,1.41101
1900,7,0.995,0,1,2,2.5758293035489,0.05,2.7,0.697521,1.45460152033635,NaN,NaN,0.0986089,1.8,1.7054613,1.8,1.6958401
1901,7,0.995,0,1,3,2.5758293035489,0.01,2.7,2.4626059,1.55571223205499,2.68384664651144,3.55691968361648,24.6002537,1.799,15.6877167,1.358,13.7933497
1902,7,0.995,0,1,3,2.5758293035489,0.05,2.7,2.4865923,1.55571223205499,2.68384664651144,3.55691968361648,24.5492404,1.799,15.9838794,1.799,15.7585482
1903,8,0.995,0,1,1,2.5758293035489,0.01,2.5,0.3121379,1.6210437499199,2.70234124968491,NaN,0.0064968,1.5,0.1534701,1.5,0.1577357
1904,8,0.995,0,1,1,2.5758293035489,0.05,2.5,0.305135,1.6210437499199,2.70234124968491,NaN,0.0077387,1.5,0.1511463,1.5,0.1540789
1905,8,0.995,0,1,2,2.5758293035489,0.01,2.56,0.6957696,1.75857517570973,2.68134278729077,3.34362071214487,0.0787249,1.47,1.4309429,1.12,1.2252172
1906,8,0.995,0,1,2,2.5758293035489,0.05,2.56,0.7197938,1.75857517570973,2.68134278729077,3.34362071214487,0.0767513,1.5,1.4470877,1.5,1.447872
1907,8,0.995,0,1,3,2.5758293035489,0.01,1.868,2.2574379,1.83698689652124,2.70139192789245,3.36656746306612,24.8214632,1.109,12.3147832,1.102,12.1627652
1908,8,0.995,0,1,3,2.5758293035489,0.05,1.868,2.2410151,1.83698689652124,2.70139192789245,3.36656746306612,24.9282215,1.109,12.2891683,1.109,12.2928812
1909,9,0.995,0,1,1,2.5758293035489,0.01,1.6,0.2248999,1.72743247752868,2.79096222021365,NaN,0.0067179,1.3,0.1388579,1.3,0.1425402
1910,9,0.995,0,1,1,2.5758293035489,0.05,1.6,0.2221066,1.72743247752868,2.79096222021365,NaN,0.0054136,1.4,0.1454468,1.3,0.1337561
1911,9,0.995,0,1,2,2.5758293035489,0.01,1.79,0.6145945,1.77587149700918,2.70468282847957,NaN,0.0871568,1.08,1.1412654,1.08,1.1467151
1912,9,0.995,0,1,2,2.5758293035489,0.05,1.79,0.5973228,1.77587149700918,2.70468282847957,NaN,0.0988537,1.35,1.307595,1.08,1.1351369
1913,9,0.995,0,1,3,2.5758293035489,0.01,1.704,2.4831488,1.82311067472152,2.67916401466063,NaN,24.7643587,1.077,11.5218303,1.077,11.8278155
1914,9,0.995,0,1,3,2.5758293035489,0.05,1.704,2.4722267,1.82311067472152,2.67916401466063,NaN,24.6503286,1.098,11.5302464,1.081,11.6920104
1915,10,0.995,0,1,1,2.5758293035489,0.01,1.6,0.2624245,1.6157433004495,2.79846521206165,NaN,0.0062831,1.5,0.1495172,1.3,0.1359372
1916,10,0.995,0,1,1,2.5758293035489,0.05,1.6,0.2590927,1.6157433004495,2.79846521206165,NaN,0.006643,1.5,0.1469456,1.5,0.1527543
1917,10,0.995,0,1,2,2.5758293035489,0.01,1.8,0.508479,1.72777406806397,2.70161788383888,2.91599455443089,0.0782319,1.05,1.1187911,1.04,1.1116616
1918,10,0.995,0,1,2,2.5758293035489,0.05,1.8,0.512245,1.72777406806397,2.70161788383888,2.91599455443089,0.087619,1.06,1.1482623,1.05,1.1257423
1919,10,0.995,0,1,3,2.5758293035489,0.01,1.8,2.3839396,1.77739287095539,2.65694704374009,NaN,23.2188853,1.038,11.1259696,1.038,11.0864749
1920,10,0.995,0,1,3,2.5758293035489,0.05,1.8,2.4028683,1.77739287095539,2.65694704374009,NaN,23.5789165,1.062,11.3682571,1.038,11.1122211
1921,1,0.995,0,2,1,2.5758293035489,0.01,2.6,0.4492586,1.35394347627285,2.72397840933862,3.76558323485166,0.0092104,1.7,0.1541182,1.7,0.1552545
1922,1,0.995,0,2,1,2.5758293035489,0.05,2.6,0.4441172,1.35394347627285,2.72397840933862,3.76558323485166,0.0170903,1.7,0.1516217,1.7,0.1494813
1923,1,0.995,0,2,2,2.5758293035489,0.01,2.58,0.3765234,1.47893857033997,2.65984828279218,3.92054479763107,0.1136822,1.45,1.3256641,1.44,1.3250386
1924,1,0.995,0,2,2,2.5758293035489,0.05,2.58,0.3627377,1.47893857033997,2.65984828279218,3.92054479763107,0.0853647,1.68,1.465258,1.68,1.4500484
1925,1,0.995,0,2,3,2.5758293035489,0.01,2.575,2.5169302,1.57718515603754,2.65517122525262,3.95621956163476,25.1592138,1.433,13.378564,1.433,12.9479108
1926,1,0.995,0,2,3,2.5758293035489,0.05,2.575,2.5165161,1.57718515603754,2.65517122525262,3.95621956163476,25.0156971,1.684,14.1988197,1.684,14.7814379
1927,2,0.995,0,2,1,2.5758293035489,0.01,2.6,0.4432826,1.43746384056396,3.57891905056501,NaN,0.006906,1.3,0.1307985,1.3,0.1290663
1928,2,0.995,0,2,1,2.5758293035489,0.05,2.6,0.4259892,1.43746384056396,3.57891905056501,NaN,0.0068108,1.3,0.1319188,1.3,0.1274183
1929,2,0.995,0,2,2,2.5758293035489,0.01,2.58,0.5084206,1.61669559783941,2.71665819170391,3.59035542698917,0.1042712,1.29,1.362905,0.98,1.0084522
1930,2,0.995,0,2,2,2.5758293035489,0.05,2.58,0.5081237,1.61669559783941,2.71665819170391,3.59035542698917,0.0820426,1.29,1.201266,1.29,1.2015354
1931,2,0.995,0,2,3,2.5758293035489,0.01,2.579,2.590709,1.73813683881211,2.67752627252474,3.5876151214587,25.2595116,1.048,10.7242521,0.982,10.4619303
1932,2,0.995,0,2,3,2.5758293035489,0.05,2.579,2.6310045,1.73813683881211,2.67752627252474,3.5876151214587,24.9170175,1.286,11.9951669,1.285,12.3142604
1933,3,0.995,0,2,1,2.5758293035489,0.01,2.5,0.3729001,1.46369681683927,3.49483199064212,NaN,0.0064819,2.1,0.1678495,1.3,0.1257416
1934,3,0.995,0,2,1,2.5758293035489,0.05,2.5,0.3657691,1.46369681683927,3.49483199064212,NaN,0.0068765,2.1,0.1684831,2.1,0.1632849
1935,3,0.995,0,2,2,2.5758293035489,0.01,2.57,0.5142645,1.57857382429123,2.65638973122435,3.53232839215178,0.1011519,1.29,1.1977622,1.27,1.1763926
1936,3,0.995,0,2,2,2.5758293035489,0.05,2.57,0.5117107,1.57857382429123,2.65638973122435,3.53232839215178,0.0742934,2.05,1.6394226,1.95,1.5919874
1937,3,0.995,0,2,3,2.5758293035489,0.01,2.575,3.0631643,1.64919311612007,2.64660889269054,3.52975294116476,25.1184223,1.02,10.2256128,1.007,10.1080196
1938,3,0.995,0,2,3,2.5758293035489,0.05,2.575,3.058786,1.64919311612007,2.64660889269054,3.52975294116476,25.0429903,2.052,15.3135988,1.952,14.8980472
1939,4,0.995,0,2,1,2.5758293035489,0.01,2.5,0.4266211,1.53651285624011,2.70982190148884,NaN,0.0080443,1.4,0.1369593,1.3,0.1324888
1940,4,0.995,0,2,1,2.5758293035489,0.05,2.5,0.4262058,1.53651285624011,2.70982190148884,NaN,0.0084283,1.4,0.137357,1.4,0.1330908
1941,4,0.995,0,2,2,2.5758293035489,0.01,2.58,0.4960855,1.64426735188915,2.64950721825463,3.86519502843317,0.090531,0.98,1.019,0.97,1.0261918
1942,4,0.995,0,2,2,2.5758293035489,0.05,2.58,0.4894252,1.64426735188915,2.64950721825463,3.86519502843317,0.0994258,1.35,1.2555399,1.35,1.2522033
1943,4,0.995,0,2,3,2.5758293035489,0.01,2.579,3.0470008,1.7295693749572,2.62604748207045,3.85796577784697,24.308709,0.978,10.0821361,0.966,9.9968166
1944,4,0.995,0,2,3,2.5758293035489,0.05,2.579,2.9336668,1.7295693749572,2.62604748207045,3.85796577784697,24.1863666,1.353,12.6333585,0.992,10.4915452
1945,5,0.995,0,2,1,2.5758293035489,0.01,2.5,0.4409688,1.58743643462468,3.01084460404781,NaN,0.0074273,1.5,0.1444833,1.5,0.1404519
1946,5,0.995,0,2,1,2.5758293035489,0.05,2.5,0.4257763,1.58743643462468,3.01084460404781,NaN,0.0074326,1.6,0.1440104,1.6,0.1448906
1947,5,0.995,0,2,2,2.5758293035489,0.01,2.53,0.4599124,1.69044443358379,2.98367450966163,4.50287580745118,0.0968138,1.28,1.2115383,1.27,1.2186995
1948,5,0.995,0,2,2,2.5758293035489,0.05,2.53,0.464907,1.69044443358379,2.98367450966163,4.50287580745118,0.0882915,1.48,1.3346745,1.48,1.3235179
1949,5,0.995,0,2,3,2.5758293035489,0.01,2.534,2.7024698,1.76655859040054,2.96777134404898,4.58846230872885,24.2149309,1.084,11.0166161,1.084,11.0856998
1950,5,0.995,0,2,3,2.5758293035489,0.05,2.534,2.7431369,1.76655859040054,2.96777134404898,4.58846230872885,24.2450421,1.474,13.0122657,1.474,13.3354621
1951,6,0.995,0,2,1,2.5758293035489,0.01,2.5,0.4223111,1.34242118874717,2.6737740510483,3.82536958339672,0.0076568,1.8,0.1628166,1.7,0.1552554
1952,6,0.995,0,2,1,2.5758293035489,0.05,2.5,0.4213223,1.34242118874717,2.6737740510483,3.82536958339672,0.0077974,1.8,0.1624668,1.8,0.1622399
1953,6,0.995,0,2,2,2.5758293035489,0.01,2.57,0.3778306,1.44292650426521,2.6398823519189,5.08948966334867,0.1165093,0.9,0.9694395,0.89,0.9474925
1954,6,0.995,0,2,2,2.5758293035489,0.05,2.57,0.3921651,1.44292650426521,2.6398823519189,5.08948966334867,0.0862051,1.8,1.5246779,0.91,0.9590991
1955,6,0.995,0,2,3,2.5758293035489,0.01,2.571,2.4642935,1.55981126168159,2.63361458479126,NaN,24.6442641,0.904,9.6339527,0.902,9.5584083
1956,6,0.995,0,2,3,2.5758293035489,0.05,2.571,2.4645097,1.55981126168159,2.63361458479126,NaN,24.9600884,1.802,14.6823022,0.907,9.6500272
1957,7,0.995,0,2,1,2.5758293035489,0.01,2.6,0.4040505,1.58627311459387,3.47833795805972,NaN,0.0077225,1.3,0.1284341,1.3,0.1277845
1958,7,0.995,0,2,1,2.5758293035489,0.05,2.6,0.3972519,1.58627311459387,3.47833795805972,NaN,0.0071794,1.3,0.1293726,1.3,0.1269153
1959,7,0.995,0,2,2,2.5758293035489,0.01,2.57,0.5979274,1.70121510377256,2.64598212582645,3.19616042079913,0.0880744,0.98,1.0344324,0.98,1.0134916
1960,7,0.995,0,2,2,2.5758293035489,0.05,2.57,0.5799542,1.70121510377256,2.64598212582645,3.19616042079913,0.0914182,0.98,0.9955474,0.98,1.0105095
1961,7,0.995,0,2,3,2.5758293035489,0.01,1.676,2.4997054,1.75123092241342,2.63663800970898,3.40629406070927,24.9168426,0.983,10.7099021,0.983,10.2161452
1962,7,0.995,0,2,3,2.5758293035489,0.05,1.676,2.4953922,1.75123092241342,2.63663800970898,3.40629406070927,24.7498955,0.984,10.5098901,1.023,10.6282825
1963,8,0.995,0,2,1,2.5758293035489,0.01,2.6,0.5013762,1.43296629360123,2.74662147278783,NaN,0.007188,1.3,0.1381047,1.3,0.1550038
1964,8,0.995,0,2,1,2.5758293035489,0.05,2.6,0.4607666,1.43296629360123,2.74662147278783,NaN,0.00955,1.4,0.1746465,1.3,0.1284569
1965,8,0.995,0,2,2,2.5758293035489,0.01,2.57,0.5506395,1.57183426775747,2.69862834204273,4.54351198526924,0.1074339,1.3,1.3567151,1.29,1.2322782
1966,8,0.995,0,2,2,2.5758293035489,0.05,2.57,0.4871359,1.57183426775747,2.69862834204273,4.54351198526924,0.0928304,1.34,1.2286926,1.31,1.2145356
1967,8,0.995,0,2,3,2.5758293035489,0.01,2.571,2.6622222,1.68032805175339,2.68900585721419,4.54233203894784,23.3476471,1.286,11.9784853,1.286,12.1583867
1968,8,0.995,0,2,3,2.5758293035489,0.05,2.571,2.6862908,1.68032805175339,2.68900585721419,4.54233203894784,23.4300603,1.338,12.1774537,1.307,11.9442422
1969,9,0.995,0,2,1,2.5758293035489,0.01,2.6,0.5673858,1.50230307335447,2.82091916340067,3.7057108315207,0.0081527,1.3,0.1348423,1.3,0.1258678
1970,9,0.995,0,2,1,2.5758293035489,0.05,3.4,0.7291367,1.50230307335447,2.82091916340067,3.7057108315207,0.0073532,1.3,0.1298469,1.3,0.1272026
1971,9,0.995,0,2,2,2.5758293035489,0.01,2.57,0.5076805,1.59329718687224,3.09604900416765,NaN,0.0999378,0.94,1.0400651,0.94,1.0509704
1972,9,0.995,0,2,2,2.5758293035489,0.05,3.42,0.7182767,1.59329718687224,3.09604900416765,NaN,0.0881058,1.29,1.2646568,1.29,1.2408038
1973,9,0.995,0,2,3,2.5758293035489,0.01,1.629,2.3267931,1.67073755974305,3.11231256824564,NaN,24.2062842,0.943,9.8041887,0.942,9.6696696
1974,9,0.995,0,2,3,2.5758293035489,0.05,1.629,2.3167257,1.67073755974305,3.11231256824564,NaN,24.2665957,1.287,12.2947084,1.287,12.0007329
1975,10,0.995,0,2,1,2.5758293035489,0.01,2.6,0.3802274,1.42793526207227,2.76961607915021,3.69549583540594,0.0072196,1.4,0.1438003,1.4,0.1368649
1976,10,0.995,0,2,1,2.5758293035489,0.05,2.6,0.3736737,1.42793526207227,2.76961607915021,3.69549583540594,0.0078691,1.6,0.1520673,1.6,0.144219
1977,10,0.995,0,2,2,2.5758293035489,0.01,2.58,0.5396627,1.53217135007704,2.7213191904177,3.71012657644516,0.0964114,1.29,1.191771,1.29,1.1956088
1978,10,0.995,0,2,2,2.5758293035489,0.05,2.58,0.5639627,1.53217135007704,2.7213191904177,3.71012657644516,0.0870201,1.54,1.3732481,1.54,1.3677829
1979,10,0.995,0,2,3,2.5758293035489,0.01,2.579,2.3139739,1.64368247032364,2.69866254519921,3.71683597156791,25.1423148,1.29,12.0426959,1.29,12.4613173
1980,10,0.995,0,2,3,2.5758293035489,0.05,2.579,2.2826025,1.64368247032364,2.69866254519921,3.71683597156791,25.1238133,1.535,13.7691128,1.535,13.3389311
1981,1,0.995,0.05,0.5,1,2.5758293035489,0.01,1.5,0.2077853,NaN,NaN,NaN,0.0027918,1.9,0.1800928,1.9,0.179273
1982,1,0.995,0.05,0.5,1,2.5758293035489,0.05,2.1,0.3327428,NaN,NaN,NaN,0.0028082,1.9,0.1751869,1.9,0.1788933
1983,1,0.995,0.05,0.5,2,2.5758293035489,0.01,1.57,0.4825752,2.55311421715952,NaN,NaN,0.1002789,1.57,1.7021099,1.57,1.7207533
1984,1,0.995,0.05,0.5,2,2.5758293035489,0.05,1.57,0.5046321,2.55311421715952,NaN,NaN,0.090162,1.57,1.5629051,1.57,1.5180877
1985,1,0.995,0.05,0.5,3,2.5758293035489,0.01,1.578,1.8608222,2.39998798908988,2.56924477426517,NaN,24.0041228,1.547,15.0175498,1.547,14.9410749
1986,1,0.995,0.05,0.5,3,2.5758293035489,0.05,1.578,1.8453861,2.39998798908988,2.56924477426517,NaN,24.0144326,1.549,14.961162,1.549,15.1598792
1987,2,0.995,0.05,0.5,1,2.5758293035489,0.01,1.5,0.2165218,1.98579833089335,NaN,NaN,0.0054771,3.6,0.258995,3.6,0.2549978
1988,2,0.995,0.05,0.5,1,2.5758293035489,0.05,1.9,0.4204753,1.98579833089335,NaN,NaN,0.0048278,3.6,0.2536459,3.6,0.2559574
1989,2,0.995,0.05,0.5,2,2.5758293035489,0.01,1.52,0.47553,1.99570950873441,2.86606049637265,NaN,0.0818654,1.69,1.684634,1.69,1.6499274
1990,2,0.995,0.05,0.5,2,2.5758293035489,0.05,1.52,0.489264,1.99570950873441,2.86606049637265,NaN,0.0961651,1.69,1.6522187,1.69,1.6539768
1991,2,0.995,0.05,0.5,3,2.5758293035489,0.01,1.53,1.9721505,2.0047807623516,2.88196019425289,NaN,24.8825995,1.645,15.8878688,1.645,16.1074514
1992,2,0.995,0.05,0.5,3,2.5758293035489,0.05,1.53,1.9536586,2.0047807623516,2.88196019425289,NaN,25.2405981,1.645,20.0717729,1.645,18.3641084
1993,3,0.995,0.05,0.5,1,2.5758293035489,0.01,1.7,0.2477309,1.71633116128443,NaN,NaN,0.0058497,2,0.2385157,2,0.2410829
1994,3,0.995,0.05,0.5,1,2.5758293035489,0.05,1.7,0.2371787,1.71633116128443,NaN,NaN,0.005885,2,0.2166915,2,0.2142527
1995,3,0.995,0.05,0.5,2,2.5758293035489,0.01,1.76,0.5718981,1.77478895000853,2.65641270974252,NaN,0.091531,1.6,1.7745972,1.6,1.8609584
1996,3,0.995,0.05,0.5,2,2.5758293035489,0.05,1.76,0.5751732,1.77478895000853,2.65641270974252,NaN,0.1046118,1.6,1.8522317,1.6,1.8187867
1997,3,0.995,0.05,0.5,3,2.5758293035489,0.01,1.872,2.8435765,1.87189619962557,2.6432341629291,NaN,26.6570757,1.566,15.6005601,1.566,15.675102
1998,3,0.995,0.05,0.5,3,2.5758293035489,0.05,1.872,2.3617727,1.87189619962557,2.6432341629291,NaN,26.2655246,1.59,15.7614707,1.59,15.9251826
1999,4,0.995,0.05,0.5,1,2.5758293035489,0.01,1.8,0.2043891,2.09017584916201,NaN,NaN,0.0044998,3.7,0.2562665,3.7,0.2597559
2000,4,0.995,0.05,0.5,1,2.5758293035489,0.05,1.8,0.1979101,2.09017584916201,NaN,NaN,0.0045677,3.7,0.2573589,3.7,0.2529266
2001,4,0.995,0.05,0.5,2,2.5758293035489,0.01,1.5,0.4835327,2.08886059971336,2.85206498617583,NaN,0.0769996,1.66,1.5727502,1.66,1.5758861
2002,4,0.995,0.05,0.5,2,2.5758293035489,0.05,1.85,0.6124942,2.08886059971336,2.85206498617583,NaN,0.1038998,1.75,1.5823644,1.75,1.6248738
2003,4,0.995,0.05,0.5,3,2.5758293035489,0.01,1.382,2.0903269,1.80923812359454,2.09112074331054,2.85014044982932,25.4018863,1.644,15.0932428,1.644,15.400478
2004,4,0.995,0.05,0.5,3,2.5758293035489,0.05,1.382,1.9849675,1.80923812359454,2.09112074331054,2.85014044982932,25.499948,1.751,15.5372976,1.644,15.3777388
2005,5,0.995,0.05,0.5,1,2.5758293035489,0.01,1.7,0.1968896,1.73271126423139,2.13811795929198,NaN,0.0054652,3.5,0.2733699,3.5,0.2539578
2006,5,0.995,0.05,0.5,1,2.5758293035489,0.05,1.7,0.1850032,1.73271126423139,2.13811795929198,NaN,0.005586,3.5,0.2853357,3.5,0.2614155
2007,5,0.995,0.05,0.5,2,2.5758293035489,0.01,1.71,0.5044229,1.7807284383995,2.18423447771431,NaN,0.0769911,1.92,1.7586454,1.92,1.7369181
2008,5,0.995,0.05,0.5,2,2.5758293035489,0.05,1.71,0.4766012,1.7807284383995,2.18423447771431,NaN,0.0997039,1.92,1.7096061,1.92,1.7427823
2009,5,0.995,0.05,0.5,3,2.5758293035489,0.01,1.391,1.8693706,1.80105351133796,2.18311168543652,NaN,24.2315172,1.783,16.0857305,1.783,16.446338
2010,5,0.995,0.05,0.5,3,2.5758293035489,0.05,1.391,1.8438704,1.80105351133796,2.18311168543652,NaN,24.3426122,1.783,16.0760597,1.783,16.0357843
2011,6,0.995,0.05,0.5,1,2.5758293035489,0.01,1.5,0.2515256,1.86930588099093,NaN,NaN,0.0049587,3.4,0.2389745,3.4,0.2385326
2012,6,0.995,0.05,0.5,1,2.5758293035489,0.05,1.5,0.2373102,1.86930588099093,NaN,NaN,0.0048931,3.4,0.2403156,3.4,0.2443451
2013,6,0.995,0.05,0.5,2,2.5758293035489,0.01,1.53,0.3699652,1.68460327667203,2.69420034577231,NaN,0.0918809,1.5,1.5078146,1.5,1.6013587
2014,6,0.995,0.05,0.5,2,2.5758293035489,0.05,1.78,0.5980177,1.68460327667203,2.69420034577231,NaN,0.0966843,1.51,1.681798,1.5,1.5298316
2015,6,0.995,0.05,0.5,3,2.5758293035489,0.01,1.537,1.8659156,1.67600083659124,1.87719686308776,2.69350623408321,25.0420099,1.476,14.7085497,1.476,14.9617886
2016,6,0.995,0.05,0.5,3,2.5758293035489,0.05,1.537,1.8626967,1.67600083659124,1.87719686308776,2.69350623408321,25.1270879,1.495,14.8754742,1.476,14.7531548
2017,7,0.995,0.05,0.5,1,2.5758293035489,0.01,1.3,0.2263496,NaN,NaN,NaN,0.0036489,1.7,0.1655481,1.7,0.1620963
2018,7,0.995,0.05,0.5,1,2.5758293035489,0.05,1.9,0.3449035,NaN,NaN,NaN,0.0034087,1.7,0.1651679,1.7,0.1606585
2019,7,0.995,0.05,0.5,2,2.5758293035489,0.01,1.33,0.4719034,2.55630697417676,NaN,NaN,0.1178797,1.3,1.3604902,1.3,1.3325781
2020,7,0.995,0.05,0.5,2,2.5758293035489,0.05,1.33,0.4944037,2.55630697417676,NaN,NaN,0.0949746,1.31,1.3403523,1.3,1.3415787
2021,7,0.995,0.05,0.5,3,2.5758293035489,0.01,1.329,1.9879988,1.95080156702681,2.41721120267295,2.60854063531966,25.6464916,1.304,13.2014887,1.291,13.0835892
2022,7,0.995,0.05,0.5,3,2.5758293035489,0.05,1.329,2.0274357,1.95080156702681,2.41721120267295,2.60854063531966,25.6553237,1.308,13.5555944,1.308,13.1632267
2023,8,0.995,0.05,0.5,1,2.5758293035489,0.01,1.7,0.2186156,1.68062399901167,NaN,NaN,0.006494,3.3,0.2519387,3.3,0.2552709
2024,8,0.995,0.05,0.5,1,2.5758293035489,0.05,1.7,0.2008597,1.68062399901167,NaN,NaN,0.0055627,3.3,0.2541258,3.3,0.2568638
2025,8,0.995,0.05,0.5,2,2.5758293035489,0.01,1.75,0.462352,1.69501096499186,2.68534340374858,NaN,0.0969638,1.75,1.7380052,1.75,1.7545199
2026,8,0.995,0.05,0.5,2,2.5758293035489,0.05,1.75,0.4771421,1.69501096499186,2.68534340374858,NaN,0.078868,1.75,1.762078,1.75,1.7428573
2027,8,0.995,0.05,0.5,3,2.5758293035489,0.01,1.754,1.9163596,1.72695758898707,2.67786490892845,NaN,24.5199982,1.736,17.347355,1.736,16.8774269
2028,8,0.995,0.05,0.5,3,2.5758293035489,0.05,1.754,1.8932242,1.72695758898707,2.67786490892845,NaN,24.1516194,1.736,16.9416727,1.736,17.3035025
2029,9,0.995,0.05,0.5,1,2.5758293035489,0.01,1.5,0.204459,NaN,NaN,NaN,0.0041914,3.6,0.2607234,3.6,0.2547029
2030,9,0.995,0.05,0.5,1,2.5758293035489,0.05,2,0.3545986,NaN,NaN,NaN,0.0037261,3.6,0.2601055,3.6,0.2559994
2031,9,0.995,0.05,0.5,2,2.5758293035489,0.01,1.7,0.4987139,1.91145530107353,2.37291935808683,NaN,0.1036367,1.76,1.6597672,1.76,1.656444
2032,9,0.995,0.05,0.5,2,2.5758293035489,0.05,2.01,0.683763,1.91145530107353,2.37291935808683,NaN,0.1002426,1.76,1.6630458,1.76,1.6810478
2033,9,0.995,0.05,0.5,3,2.5758293035489,0.01,1.812,2.2996476,1.93646664610707,2.35121271573171,NaN,24.46239,1.753,16.5544947,1.753,16.0835287
2034,9,0.995,0.05,0.5,3,2.5758293035489,0.05,1.812,2.2427078,1.93646664610707,2.35121271573171,NaN,24.2168269,1.753,17.6583748,1.753,18.6765291
2035,10,0.995,0.05,0.5,1,2.5758293035489,0.01,1.6,0.2381192,NaN,NaN,NaN,0.0031669,3.6,0.255491,3.6,0.2826181
2036,10,0.995,0.05,0.5,1,2.5758293035489,0.05,1.6,0.261644,NaN,NaN,NaN,0.0056828,3.6,0.3016979,3.6,0.2760056
2037,10,0.995,0.05,0.5,2,2.5758293035489,0.01,1.64,0.4363433,1.71292247568311,2.6384833631956,NaN,0.1084925,1.6,1.6913994,1.6,1.5653007
2038,10,0.995,0.05,0.5,2,2.5758293035489,0.05,1.64,0.3563638,1.71292247568311,2.6384833631956,NaN,0.0949984,1.6,1.5301791,1.6,1.5322344
2039,10,0.995,0.05,0.5,3,2.5758293035489,0.01,1.351,1.8836597,1.64757870379208,2.35020866711513,2.60830812698583,24.1639714,1.584,15.4276861,1.584,15.3417401
2040,10,0.995,0.05,0.5,3,2.5758293035489,0.05,1.351,1.9001969,1.64757870379208,2.35020866711513,2.60830812698583,24.1173675,1.611,15.4605519,1.676,16.0515074
2041,1,0.995,0.05,1,1,2.5758293035489,0.01,1.8,0.4407325,1.87169982005584,NaN,NaN,0.0073194,1.4,0.1428446,1.3,0.1354307
2042,1,0.995,0.05,1,1,2.5758293035489,0.05,1.8,0.4280949,1.87169982005584,NaN,NaN,0.0065658,1.5,0.1510045,1.4,0.1379629
2043,1,0.995,0.05,1,2,2.5758293035489,0.01,1.53,0.4810774,1.8398286764225,2.81940032182481,NaN,0.1101245,1.1,1.1506056,1.1,1.1351992
2044,1,0.995,0.05,1,2,2.5758293035489,0.05,2,0.5864655,1.8398286764225,2.81940032182481,NaN,0.11394,1.12,1.1496005,1.11,1.1344372
2045,1,0.995,0.05,1,3,2.5758293035489,0.01,1.536,2.4221916,1.85667917402925,2.84801826546747,NaN,23.9485716,1.122,12.1603821,1.103,11.9167024
2046,1,0.995,0.05,1,3,2.5758293035489,0.05,1.536,2.5987783,1.85667917402925,2.84801826546747,NaN,23.8136756,1.126,11.9057966,1.122,12.2545636
2047,2,0.995,0.05,1,1,2.5758293035489,0.01,1.9,0.4523553,1.88142018298079,3.13905116706685,NaN,0.0062172,1.3,0.13777,1.3,0.1322643
2048,2,0.995,0.05,1,1,2.5758293035489,0.05,1.9,0.4445799,1.88142018298079,3.13905116706685,NaN,0.0058594,1.5,0.154786,1.4,0.1517436
2049,2,0.995,0.05,1,2,2.5758293035489,0.01,1.86,0.4629922,1.87250788853888,3.14670805089786,NaN,0.0990806,1.08,1.153206,1.08,1.1609954
2050,2,0.995,0.05,1,2,2.5758293035489,0.05,1.86,0.4591487,1.87250788853888,3.14670805089786,NaN,0.0973122,1.09,1.1603329,1.08,1.1671086
2051,2,0.995,0.05,1,3,2.5758293035489,0.01,1.782,2.3356641,1.87584085385146,3.13770694763697,NaN,24.7434028,1.078,11.4914719,1.077,11.5129267
2052,2,0.995,0.05,1,3,2.5758293035489,0.05,1.782,2.3389305,1.87584085385146,3.13770694763697,NaN,24.9672264,1.094,11.684385,1.088,11.5538657
2053,3,0.995,0.05,1,1,2.5758293035489,0.01,1.6,0.236775,1.62286479504399,NaN,NaN,0.0054627,1.5,0.1526831,1.4,0.1440036
2054,3,0.995,0.05,1,1,2.5758293035489,0.05,1.6,0.2246036,1.62286479504399,NaN,NaN,0.0055276,1.5,0.1500042,1.5,0.1505542
2055,3,0.995,0.05,1,2,2.5758293035489,0.01,1.6,0.3788295,1.6839656549272,2.65346837900061,NaN,0.0925062,1.1,1.1638629,1.1,1.1731725
2056,3,0.995,0.05,1,2,2.5758293035489,0.05,1.6,0.3781812,1.6839656549272,2.65346837900061,NaN,0.0865233,1.5,1.3932512,1.1,1.1703022
2057,3,0.995,0.05,1,3,2.5758293035489,0.01,1.608,2.2541173,1.73862043899334,2.63069224893723,NaN,23.3561452,1.097,12.0053996,1.097,11.5798932
2058,3,0.995,0.05,1,3,2.5758293035489,0.05,1.608,2.2551842,1.73862043899334,2.63069224893723,NaN,22.8026123,1.494,13.8648127,1.098,11.8690463
2059,4,0.995,0.05,1,1,2.5758293035489,0.01,1.4,0.3170893,1.72270581660484,2.76211510052202,NaN,0.0071469,1.3,0.1312167,1.3,0.1349122
2060,4,0.995,0.05,1,1,2.5758293035489,0.05,1.9,0.4481685,1.72270581660484,2.76211510052202,NaN,0.0065898,1.3,0.1330859,1.3,0.1356925
2061,4,0.995,0.05,1,2,2.5758293035489,0.01,1.43,0.4132689,1.81494801094936,2.70579179202839,NaN,0.0775436,1.02,1.119878,1.02,1.1141954
2062,4,0.995,0.05,1,2,2.5758293035489,0.05,1.94,0.5068807,1.81494801094936,2.70579179202839,NaN,0.0949818,1.03,1.1190407,1.02,1.1012944
2063,4,0.995,0.05,1,3,2.5758293035489,0.01,1.342,1.9624476,1.84410241743409,2.68455467444629,NaN,24.3636606,1.024,10.9493894,1.023,11.1205352
2064,4,0.995,0.05,1,3,2.5758293035489,0.05,1.342,1.974103,1.84410241743409,2.68455467444629,NaN,24.6129099,1.032,10.9380504,1.029,10.9548482
2065,5,0.995,0.05,1,1,2.5758293035489,0.01,1.9,0.4380858,NaN,NaN,NaN,0.0034791,1.4,0.1468676,1.4,0.142518
2066,5,0.995,0.05,1,1,2.5758293035489,0.05,1.9,0.4242846,NaN,NaN,NaN,0.0036415,1.4,0.1483266,1.4,0.1448267
2067,5,0.995,0.05,1,2,2.5758293035489,0.01,1.96,0.578314,1.98509637548021,2.63085789589477,3.28800340124783,0.0912347,1.16,1.2149163,1.15,1.2335583
2068,5,0.995,0.05,1,2,2.5758293035489,0.05,1.96,0.5765524,1.98509637548021,2.63085789589477,3.28800340124783,0.1080329,1.16,1.316484,1.16,1.3125101
2069,5,0.995,0.05,1,3,2.5758293035489,0.01,1.765,2.4672205,1.99563693503639,2.622424108907,3.30264603720958,23.9529508,1.112,11.941012,1.107,11.8932997
2070,5,0.995,0.05,1,3,2.5758293035489,0.05,1.765,2.3223715,1.99563693503639,2.622424108907,3.30264603720958,23.9706307,1.118,12.5004372,1.112,11.9214658
2071,6,0.995,0.05,1,1,2.5758293035489,0.01,1.7,0.2489833,1.92854693977618,NaN,NaN,0.0063885,1.3,0.1429956,1.3,0.1392793
2072,6,0.995,0.05,1,1,2.5758293035489,0.05,2.1,0.4435161,1.92854693977618,NaN,NaN,0.0059509,1.3,0.1372471,1.3,0.137775
2073,6,0.995,0.05,1,2,2.5758293035489,0.01,1.83,0.6099444,1.95930515348691,2.97669390239854,3.30266488485138,0.0857841,1.06,1.1342607,1.05,1.1327504
2074,6,0.995,0.05,1,2,2.5758293035489,0.05,1.83,0.6028724,1.95930515348691,2.97669390239854,3.30266488485138,0.0802998,1.06,1.1458346,1.06,1.1336571
2075,6,0.995,0.05,1,3,2.5758293035489,0.01,1.737,2.4811851,2.03208268390585,2.98444240525765,3.27526596167015,24.5001446,1.05,11.3377474,1.05,11.7823493
2076,6,0.995,0.05,1,3,2.5758293035489,0.05,1.737,2.46591,2.03208268390585,2.98444240525765,3.27526596167015,24.3825274,1.06,11.4981258,1.06,11.5287735
2077,7,0.995,0.05,1,1,2.5758293035489,0.01,1.6,0.2398106,1.68217600156821,2.67577663976657,NaN,0.0060974,1.5,0.1565409,1.5,0.1529123
2078,7,0.995,0.05,1,1,2.5758293035489,0.05,1.6,0.239764,1.68217600156821,2.67577663976657,NaN,0.00587,1.7,0.1623381,1.6,0.1526494
2079,7,0.995,0.05,1,2,2.5758293035489,0.01,1.91,0.671991,1.78626450946317,2.64544604995712,NaN,0.1061758,1.1,1.1618273,1.1,1.1814455
2080,7,0.995,0.05,1,2,2.5758293035489,0.05,2.6,0.7365394,1.78626450946317,2.64544604995712,NaN,0.0818425,1.51,1.4209951,1.1,1.2611149
2081,7,0.995,0.05,1,3,2.5758293035489,0.01,1.631,2.6867929,1.90297457977207,2.63647758685264,NaN,24.6704462,1.105,11.9413711,1.102,12.3408937
2082,7,0.995,0.05,1,3,2.5758293035489,0.05,1.631,2.5366646,1.90297457977207,2.63647758685264,NaN,24.4574125,1.506,14.0219599,1.105,11.8338682
2083,8,0.995,0.05,1,1,2.5758293035489,0.01,1.9,0.4663516,1.82825051766343,2.66091480032154,NaN,0.0075438,1.3,0.1345318,1.3,0.1301178
2084,8,0.995,0.05,1,1,2.5758293035489,0.05,1.9,0.4702539,1.82825051766343,2.66091480032154,NaN,0.0067752,1.3,0.1370177,1.3,0.1286754
2085,8,0.995,0.05,1,2,2.5758293035489,0.01,1.77,0.4747556,1.89135574254461,2.61145099555731,NaN,0.1084039,0.99,1.0479455,1.05,1.0867443
2086,8,0.995,0.05,1,2,2.5758293035489,0.05,1.77,0.502824,1.89135574254461,2.61145099555731,NaN,0.0788363,1.28,1.2496928,1.28,1.2469926
2087,8,0.995,0.05,1,3,2.5758293035489,0.01,1.782,2.4176018,1.9707335756001,2.60935914087221,NaN,24.8379221,0.987,10.535828,0.987,10.4610744
2088,8,0.995,0.05,1,3,2.5758293035489,0.05,1.782,2.3559901,1.9707335756001,2.60935914087221,NaN,24.4321961,1.151,11.8425171,1.145,11.8116839
2089,9,0.995,0.05,1,1,2.5758293035489,0.01,1.7,0.2385889,2.73903851464203,NaN,NaN,0.0063662,1.4,0.1441849,1.3,0.1368919
2090,9,0.995,0.05,1,1,2.5758293035489,0.05,1.9,0.4290091,2.73903851464203,NaN,NaN,0.0055995,1.4,0.1451627,1.4,0.1427804
2091,9,0.995,0.05,1,2,2.5758293035489,0.01,1.94,0.5907671,1.9243425683902,2.62044205265913,2.95284324518039,0.0934944,1.1,1.1549731,1.1,1.1826741
2092,9,0.995,0.05,1,2,2.5758293035489,0.05,1.94,0.5932272,1.9243425683902,2.62044205265913,2.95284324518039,0.1079112,1.38,1.3278326,1.1,1.1576324
2093,9,0.995,0.05,1,3,2.5758293035489,0.01,1.759,2.6269858,1.93527778501109,2.61336399279409,2.96289432511265,25.5908898,1.118,11.7127314,1.103,12.0003606
2094,9,0.995,0.05,1,3,2.5758293035489,0.05,1.759,2.6105778,1.93527778501109,2.61336399279409,2.96289432511265,25.1702226,1.383,13.4475221,1.136,11.8286452
2095,10,0.995,0.05,1,1,2.5758293035489,0.01,1.7,0.2873369,1.73469798369771,NaN,NaN,0.0059235,1.3,0.1394453,1.3,0.1371172
2096,10,0.995,0.05,1,1,2.5758293035489,0.05,1.7,0.270121,1.73469798369771,NaN,NaN,0.0060164,1.3,0.1436656,1.3,0.1396159
2097,10,0.995,0.05,1,2,2.5758293035489,0.01,1.73,0.3791217,1.77798357218705,2.65533135278245,3.63709732016416,0.094513,1.1,1.1609326,1.1,1.1635457
2098,10,0.995,0.05,1,2,2.5758293035489,0.05,1.73,0.3851337,1.77798357218705,2.65533135278245,3.63709732016416,0.0929141,1.14,1.2776215,1.14,1.311296
2099,10,0.995,0.05,1,3,2.5758293035489,0.01,1.738,2.5422356,1.77798403628823,2.64400174903244,3.58569306048135,24.9805816,1.094,11.503451,1.094,11.7099289
2100,10,0.995,0.05,1,3,2.5758293035489,0.05,1.738,2.4596422,1.77798403628823,2.64400174903244,3.58569306048135,24.8036647,1.145,11.8368549,1.142,11.7595632
2101,1,0.995,0.05,2,1,2.5758293035489,0.01,2.5,0.4849619,1.44864510753381,NaN,NaN,0.0068797,1.3,0.1332556,1.3,0.1234232
2102,1,0.995,0.05,2,1,2.5758293035489,0.05,2.5,0.4866434,1.44864510753381,NaN,NaN,0.0073248,1.4,0.1398477,1.3,0.1259165
2103,1,0.995,0.05,2,2,2.5758293035489,0.01,2.57,0.5215759,1.57776695480894,3.87994632339194,NaN,0.0880581,1.27,1.1884458,1.24,1.1641132
2104,1,0.995,0.05,2,2,2.5758293035489,0.05,2.57,0.5508438,1.57776695480894,3.87994632339194,NaN,0.0872046,1.28,1.1910518,1.27,1.1850772
2105,1,0.995,0.05,2,3,2.5758293035489,0.01,1.588,2.5252326,1.65596144865262,3.88368729455313,NaN,24.2539281,1.254,11.7266248,1.241,11.6215451
2106,1,0.995,0.05,2,3,2.5758293035489,0.05,1.588,2.3679006,1.65596144865262,3.88368729455313,NaN,24.4200083,1.275,12.1985368,1.266,12.0471266
2107,2,0.995,0.05,2,1,2.5758293035489,0.01,1.6,0.3405801,1.64947778818246,2.76195652852669,4.6419561339888,0.0078638,1.3,0.125975,1.3,0.1265189
2108,2,0.995,0.05,2,1,2.5758293035489,0.05,1.6,0.3458289,1.64947778818246,2.76195652852669,4.6419561339888,0.0088248,1.3,0.1253609,1.3,0.1233511
2109,2,0.995,0.05,2,2,2.5758293035489,0.01,1.8,0.3437164,1.71154985289696,2.68721583554113,2.94020508990249,0.1187464,1.31,1.2379126,1.31,1.2432029
2110,2,0.995,0.05,2,2,2.5758293035489,0.05,1.8,0.3474268,1.71154985289696,2.68721583554113,2.94020508990249,0.1033909,1.32,1.2535052,1.31,1.2274832
2111,2,0.995,0.05,2,3,2.5758293035489,0.01,1.673,2.5298889,1.77202338974535,2.62826313956206,2.95345961860822,24.9804675,1.001,10.2807654,0.999,10.6961424
2112,2,0.995,0.05,2,3,2.5758293035489,0.05,1.673,2.5526353,1.77202338974535,2.62826313956206,2.95345961860822,25.2285327,1.307,12.2895089,1.307,12.3391651
2113,3,0.995,0.05,2,1,2.5758293035489,0.01,2.5,0.4811467,1.39803025160743,2.75090000740237,3.49610051435424,0.0078892,1.3,0.1360191,1.3,0.1297849
2114,3,0.995,0.05,2,1,2.5758293035489,0.05,2.5,0.4852558,1.39803025160743,2.75090000740237,3.49610051435424,0.0080855,1.3,0.1334797,1.3,0.1256799
2115,3,0.995,0.05,2,2,2.5758293035489,0.01,2.9,0.6388462,1.49916643844153,2.70174276935015,3.53082341097533,0.117014,0.94,0.976677,0.9,0.9475992
2116,3,0.995,0.05,2,2,2.5758293035489,0.05,2.9,0.607997,1.49916643844153,2.70174276935015,3.53082341097533,0.1057052,1.29,1.2190005,1.29,1.2365727
2117,3,0.995,0.05,2,3,2.5758293035489,0.01,2.896,3.0442974,1.54687597670682,2.70766542215662,3.54412782105096,25.0533816,0.935,9.6817639,0.934,9.7015738
2118,3,0.995,0.05,2,3,2.5758293035489,0.05,2.896,3.0644071,1.54687597670682,2.70766542215662,3.54412782105096,25.2033551,1.286,12.0341643,0.957,9.8184275
2119,4,0.995,0.05,2,1,2.5758293035489,0.01,1.9,0.4878447,1.72900594182536,2.86495804777807,3.35617640092342,0.0070985,1.3,0.1300936,1.3,0.1240305
2120,4,0.995,0.05,2,1,2.5758293035489,0.05,1.9,0.4868759,1.72900594182536,2.86495804777807,3.35617640092342,0.0075481,1.3,0.129013,1.3,0.128001
2121,4,0.995,0.05,2,2,2.5758293035489,0.01,1.87,0.357366,1.82353008726466,3.2484015594209,4.4182130518194,0.0912583,1.29,1.2117812,1.29,1.2063422
2122,4,0.995,0.05,2,2,2.5758293035489,0.05,1.87,0.3633979,1.82353008726466,3.2484015594209,4.4182130518194,0.0804957,1.29,1.2284098,1.29,1.2170974
2123,4,0.995,0.05,2,3,2.5758293035489,0.01,1.874,2.3784527,1.86336358024568,2.73981856811176,3.30103766753772,25.1711532,1.288,12.5365525,1.288,12.0525567
2124,4,0.995,0.05,2,3,2.5758293035489,0.05,1.874,2.410548,1.86336358024568,2.73981856811176,3.30103766753772,25.109271,1.288,12.1174859,1.288,12.5349545
2125,5,0.995,0.05,2,1,2.5758293035489,0.01,1.6,0.2768508,1.69168154323832,2.75253866205467,3.51545390236758,0.0075011,1.3,0.1302091,1.3,0.1247377
2126,5,0.995,0.05,2,1,2.5758293035489,0.05,1.6,0.2723487,1.69168154323832,2.75253866205467,3.51545390236758,0.0069233,1.3,0.1307507,1.3,0.1287039
2127,5,0.995,0.05,2,2,2.5758293035489,0.01,1.77,0.354612,1.72917304952161,2.75482231053359,3.55059375936849,0.1023601,1.28,1.1934364,1.28,1.1813544
2128,5,0.995,0.05,2,2,2.5758293035489,0.05,1.77,0.3404257,1.72917304952161,2.75482231053359,3.55059375936849,0.096486,1.29,1.2132435,1.28,1.2069274
2129,5,0.995,0.05,2,3,2.5758293035489,0.01,1.64,2.5482646,1.77156685984923,2.73773499218024,3.58316083293749,24.1606452,1.285,12.2938759,1.282,12.1904505
2130,5,0.995,0.05,2,3,2.5758293035489,0.05,1.64,2.7076493,1.77156685984923,2.73773499218024,3.58316083293749,23.8951794,1.288,12.0418227,1.285,12.2699253
2131,6,0.995,0.05,2,1,2.5758293035489,0.01,1.7,0.3128294,1.71032595501526,2.70540657689753,3.67490360308828,0.0083161,1.3,0.1296772,1.3,0.1282275
2132,6,0.995,0.05,2,1,2.5758293035489,0.05,1.7,0.3002523,1.71032595501526,2.70540657689753,3.67490360308828,0.0076917,1.3,0.1295384,1.3,0.1284351
2133,6,0.995,0.05,2,2,2.5758293035489,0.01,1.77,0.3704144,1.74748702187302,2.68075820759704,3.71110448464724,0.0909327,0.94,0.9846548,0.94,0.9767551
2134,6,0.995,0.05,2,2,2.5758293035489,0.05,1.77,0.3830939,1.74748702187302,2.68075820759704,3.71110448464724,0.0843462,1.29,1.2343643,1.28,1.2596234
2135,6,0.995,0.05,2,3,2.5758293035489,0.01,1.723,2.5905539,1.76930235091704,2.66084509521607,3.72149329501407,25.0852416,0.939,9.7916221,0.984,10.0783129
2136,6,0.995,0.05,2,3,2.5758293035489,0.05,1.723,2.5549491,1.76930235091704,2.66084509521607,3.72149329501407,24.8199141,1.035,10.5633111,1.026,10.3791492
2137,7,0.995,0.05,2,1,2.5758293035489,0.01,1.8,0.5315563,1.71714857630472,3.35620126395276,NaN,0.0074187,1.3,0.1315635,1.3,0.1272759
2138,7,0.995,0.05,2,1,2.5758293035489,0.05,1.8,0.5387614,1.71714857630472,3.35620126395276,NaN,0.0074931,1.3,0.1343916,1.3,0.1314245
2139,7,0.995,0.05,2,2,2.5758293035489,0.01,1.87,0.3747381,1.76668146802826,3.38713326308541,4.86750297617226,0.0858681,1.28,1.2719739,1.28,1.2649493
2140,7,0.995,0.05,2,2,2.5758293035489,0.05,1.87,0.3762199,1.76668146802826,3.38713326308541,4.86750297617226,0.1006595,1.28,1.2702506,1.28,1.2556888
2141,7,0.995,0.05,2,3,2.5758293035489,0.01,1.61,2.434706,1.83353768186381,2.67188528270753,3.37921713388845,25.0107127,1.069,11.4969822,1.069,11.0539545
2142,7,0.995,0.05,2,3,2.5758293035489,0.05,1.61,2.4406639,1.83353768186381,2.67188528270753,3.37921713388845,24.738863,1.277,12.6730855,1.277,12.62114
2143,8,0.995,0.05,2,1,2.5758293035489,0.01,1.6,0.286129,1.76338499409513,2.64823772966452,NaN,0.0089588,1.3,0.1516012,1.3,0.1453345
2144,8,0.995,0.05,2,1,2.5758293035489,0.05,1.6,0.2873164,1.76338499409513,2.64823772966452,NaN,0.0071389,1.3,0.1654905,1.6,0.1704471
2145,8,0.995,0.05,2,2,2.5758293035489,0.01,1.83,0.3576223,1.78865785622769,2.62969473613848,4.21854912863963,0.1031129,1.28,1.2743841,1.28,1.2281528
2146,8,0.995,0.05,2,2,2.5758293035489,0.05,1.83,0.3414316,1.78865785622769,2.62969473613848,4.21854912863963,0.0852413,1.29,1.2127761,1.29,1.2146288
2147,8,0.995,0.05,2,3,2.5758293035489,0.01,1.638,2.4445542,1.83531400962566,2.62092712528723,4.21633663808145,24.8400445,1.116,11.2997328,1.088,10.8565169
2148,8,0.995,0.05,2,3,2.5758293035489,0.05,1.638,2.4624152,1.83531400962566,2.62092712528723,4.21633663808145,24.7970756,1.283,12.0023796,1.287,11.992491
2149,9,0.995,0.05,2,1,2.5758293035489,0.01,2.6,0.4298893,1.44747113938336,3.97056020108104,NaN,0.0069759,1.3,0.1324094,1.3,0.1250672
2150,9,0.995,0.05,2,1,2.5758293035489,0.05,2.6,0.4694466,1.44747113938336,3.97056020108104,NaN,0.00742,2.1,0.2102714,1.3,0.1308741
2151,9,0.995,0.05,2,2,2.5758293035489,0.01,2.59,0.4960321,1.57284494855874,2.72974521456373,3.93038896746522,0.0996535,1.3,1.2885325,1.29,1.3217805
2152,9,0.995,0.05,2,2,2.5758293035489,0.05,2.59,0.4852932,1.57284494855874,2.72974521456373,3.93038896746522,0.1093219,1.36,1.2867298,1.33,1.233647
2153,9,0.995,0.05,2,3,2.5758293035489,0.01,2.594,2.734666,1.63880622751137,2.71163176321121,3.8666932622409,24.0543159,1.297,12.011657,1.099,10.7630287
2154,9,0.995,0.05,2,3,2.5758293035489,0.05,2.594,2.7446539,1.63880622751137,2.71163176321121,3.8666932622409,24.0777712,1.355,12.6779477,1.297,11.9451614
2155,10,0.995,0.05,2,1,2.5758293035489,0.01,2.5,0.5077226,1.54127820042971,2.74506386915864,4.0826096694664,0.0068737,1.3,0.1301663,1.3,0.129207
2156,10,0.995,0.05,2,1,2.5758293035489,0.05,2.5,0.4976036,1.54127820042971,2.74506386915864,4.0826096694664,0.0077541,1.5,0.1420226,1.5,0.1480327
2157,10,0.995,0.05,2,2,2.5758293035489,0.01,2.58,0.5014067,1.59663985286863,2.66700079506154,4.08091475629215,0.0935204,1.3,1.2381536,1.34,1.2497409
2158,10,0.995,0.05,2,2,2.5758293035489,0.05,2.58,0.5248683,1.59663985286863,2.66700079506154,4.08091475629215,0.1018903,1.47,1.3433076,1.53,1.3665079
2159,10,0.995,0.05,2,3,2.5758293035489,0.01,1.653,2.5451791,1.63546752184202,2.65124587177471,4.06200585415926,25.6955858,1.299,12.7461737,1.313,12.3287314
2160,10,0.995,0.05,2,3,2.5758293035489,0.05,2.567,2.785192,1.63546752184202,2.65124587177471,4.06200585415926,25.3337161,1.471,13.5212304,1.488,13.68435
2161,1,0.995,0.1,0.5,1,2.5758293035489,0.01,1.6,0.2377504,2.36286692994631,NaN,NaN,0.0050975,1.8,0.1725782,1.8,0.1843726
2162,1,0.995,0.1,0.5,1,2.5758293035489,0.05,1.6,0.2422732,2.36286692994631,NaN,NaN,0.0055056,1.8,0.1697107,1.8,0.1678342
2163,1,0.995,0.1,0.5,2,2.5758293035489,0.01,1.49,0.4810934,2.2912235370487,2.86929163812671,NaN,0.0861962,1.38,1.3985591,1.38,1.4293527
2164,1,0.995,0.1,0.5,2,2.5758293035489,0.05,1.49,0.4719514,2.2912235370487,2.86929163812671,NaN,0.1125501,1.38,1.3998913,1.38,1.41347
2165,1,0.995,0.1,0.5,3,2.5758293035489,0.01,1.154,2.0405362,1.61311100621873,2.27125687743357,2.86768172976849,24.1884775,1.349,13.9568387,1.345,14.0289193
2166,1,0.995,0.1,0.5,3,2.5758293035489,0.05,1.154,2.1037657,1.61311100621873,2.27125687743357,2.86768172976849,24.218375,1.349,13.8143942,1.349,13.9603134
2167,2,0.995,0.1,0.5,1,2.5758293035489,0.01,1.6,0.2411464,1.70342432127813,NaN,NaN,0.0053467,2.4,0.2022775,2.4,0.1963481
2168,2,0.995,0.1,0.5,1,2.5758293035489,0.05,1.6,0.226538,1.70342432127813,NaN,NaN,0.0057259,2.4,0.1992511,2.4,0.2060644
2169,2,0.995,0.1,0.5,2,2.5758293035489,0.01,1.77,0.3924514,1.75039436601769,NaN,NaN,0.0861974,1.4,1.5280354,1.4,1.4188354
2170,2,0.995,0.1,0.5,2,2.5758293035489,0.05,1.77,0.3696879,1.75039436601769,NaN,NaN,0.0870609,1.41,1.416896,1.4,1.4159845
2171,2,0.995,0.1,0.5,3,2.5758293035489,0.01,1.326,2.1617701,1.75835778389108,NaN,NaN,24.4896164,1.388,13.8330757,1.388,14.0553557
2172,2,0.995,0.1,0.5,3,2.5758293035489,0.05,1.326,2.0728,1.75835778389108,NaN,NaN,24.2565804,1.388,13.9121608,1.388,13.7838904
2173,3,0.995,0.1,0.5,1,2.5758293035489,0.01,1.5,0.2278401,1.98868031716545,NaN,NaN,0.0060822,1.5,0.1597557,1.5,0.1551818
2174,3,0.995,0.1,0.5,1,2.5758293035489,0.05,2,0.3514235,1.98868031716545,NaN,NaN,0.0057157,1.5,0.1593913,1.5,0.1616891
2175,3,0.995,0.1,0.5,2,2.5758293035489,0.01,1.56,0.4700863,2.06472203825062,3.27528102520655,NaN,0.0935462,1.36,1.3943489,1.35,1.3836271
2176,3,0.995,0.1,0.5,2,2.5758293035489,0.05,1.56,0.4719879,2.06472203825062,3.27528102520655,NaN,0.0874567,1.36,1.5362256,1.36,1.5454376
2177,3,0.995,0.1,0.5,3,2.5758293035489,0.01,1.323,2.0243684,2.10557768433393,3.27284497745671,NaN,25.0288009,1.277,13.4174527,1.277,13.3631325
2178,3,0.995,0.1,0.5,3,2.5758293035489,0.05,1.323,1.9979632,2.10557768433393,3.27284497745671,NaN,25.1599874,1.277,13.7710085,1.345,13.6930021
2179,4,0.995,0.1,0.5,1,2.5758293035489,0.01,1.5,0.1782834,NaN,NaN,NaN,0.0028052,2,0.1888776,2,0.186198
2180,4,0.995,0.1,0.5,1,2.5758293035489,0.05,2.2,0.3288455,NaN,NaN,NaN,0.0026781,2,0.2320063,2,0.1922233
2181,4,0.995,0.1,0.5,2,2.5758293035489,0.01,1.37,0.4691543,2.18085282160797,2.87108733907698,NaN,0.0847635,1.65,1.6088925,1.65,1.5701362
2182,4,0.995,0.1,0.5,2,2.5758293035489,0.05,1.37,0.4687015,2.18085282160797,2.87108733907698,NaN,0.0693204,1.65,1.5847956,1.65,1.6014868
2183,4,0.995,0.1,0.5,3,2.5758293035489,0.01,1.373,2.0671835,1.5642954596878,2.21262859251526,2.54115082502634,24.4472039,1.564,15.6306126,1.614,15.4665676
2184,4,0.995,0.1,0.5,3,2.5758293035489,0.05,1.373,2.0430322,1.5642954596878,2.21262859251526,2.54115082502634,24.4435267,1.647,15.973076,1.647,15.7378724
2185,5,0.995,0.1,0.5,1,2.5758293035489,0.01,1.6,0.2111161,1.89476148958699,NaN,NaN,0.0052243,3.7,0.2480406,3.7,0.2541922
2186,5,0.995,0.1,0.5,1,2.5758293035489,0.05,1.8,0.4009771,1.89476148958699,NaN,NaN,0.0050313,3.7,0.2522494,3.7,0.2505776
2187,5,0.995,0.1,0.5,2,2.5758293035489,0.01,1.41,0.4615404,1.91880190226893,2.48265333631868,NaN,0.0729075,1.61,1.5604527,1.61,1.5612912
2188,5,0.995,0.1,0.5,2,2.5758293035489,0.05,1.41,0.4620488,1.91880190226893,2.48265333631868,NaN,0.080236,1.61,1.5531429,1.61,1.5407773
2189,5,0.995,0.1,0.5,3,2.5758293035489,0.01,1.414,1.9603473,1.91738527555949,2.47991957095381,NaN,25.3725776,1.554,15.4089589,1.559,14.9403015
2190,5,0.995,0.1,0.5,3,2.5758293035489,0.05,1.414,1.8950754,1.91738527555949,2.47991957095381,NaN,25.0109376,1.559,15.1126981,1.559,15.2585923
2191,6,0.995,0.1,0.5,1,2.5758293035489,0.01,1.5,0.2023533,2.33970865864577,NaN,NaN,0.0050888,1.9,0.1768413,1.9,0.17236
2192,6,0.995,0.1,0.5,1,2.5758293035489,0.05,2.2,0.3006027,2.33970865864577,NaN,NaN,0.0050844,1.9,0.1769172,1.9,0.1901987
2193,6,0.995,0.1,0.5,2,2.5758293035489,0.01,1.53,0.3611411,2.28163361086843,NaN,NaN,0.0869004,1.43,1.4217598,1.43,1.4280621
2194,6,0.995,0.1,0.5,2,2.5758293035489,0.05,1.53,0.3579803,2.28163361086843,NaN,NaN,0.0863926,1.43,1.4545556,1.43,1.4147587
2195,6,0.995,0.1,0.5,3,2.5758293035489,0.01,1.459,1.9589286,1.46095828115951,2.26130961579971,NaN,24.6948023,1.425,14.4085837,1.422,14.6040519
2196,6,0.995,0.1,0.5,3,2.5758293035489,0.05,1.459,2.0025627,1.46095828115951,2.26130961579971,NaN,24.6994735,1.425,14.4248188,1.425,14.069842
2197,7,0.995,0.1,0.5,1,2.5758293035489,0.01,1.5,0.2166908,1.68935765181175,NaN,NaN,0.0062328,2,0.1882276,2,0.1901485
2198,7,0.995,0.1,0.5,1,2.5758293035489,0.05,1.5,0.2241505,1.68935765181175,NaN,NaN,0.0062918,2,0.1934929,2,0.2453682
2199,7,0.995,0.1,0.5,2,2.5758293035489,0.01,1.53,0.5585547,1.81292646643776,2.67196180837897,NaN,0.1058557,1.48,1.7034969,1.48,1.6467998
2200,7,0.995,0.1,0.5,2,2.5758293035489,0.05,1.53,0.5015229,1.81292646643776,2.67196180837897,NaN,0.0695034,1.64,1.6126999,1.64,1.6038565
2201,7,0.995,0.1,0.5,3,2.5758293035489,0.01,1.539,1.8826007,1.87747722288278,2.24735431252502,2.65979903936746,23.9445921,1.466,15.1560522,1.466,15.0229508
2202,7,0.995,0.1,0.5,3,2.5758293035489,0.05,1.539,1.8646361,1.87747722288278,2.24735431252502,2.65979903936746,23.8235689,1.466,14.9189991,1.466,15.1918461
2203,8,0.995,0.1,0.5,1,2.5758293035489,0.01,1.6,0.2194482,2.23595657049711,NaN,NaN,0.0055062,1.8,0.1741995,1.8,0.1713994
2204,8,0.995,0.1,0.5,1,2.5758293035489,0.05,2.1,0.3327162,2.23595657049711,NaN,NaN,0.0047577,1.9,0.1938159,1.8,0.1754592
2205,8,0.995,0.1,0.5,2,2.5758293035489,0.01,1.92,0.6882378,2.21087428223636,2.79034323244427,NaN,0.1177511,1.5,1.5102954,1.5,1.5140018
2206,8,0.995,0.1,0.5,2,2.5758293035489,0.05,2.17,0.8379267,2.21087428223636,2.79034323244427,NaN,0.1078469,1.5,1.4989187,1.5,1.5044644
2207,8,0.995,0.1,0.5,3,2.5758293035489,0.01,1.244,2.0331513,1.20483425044143,2.18612292517965,2.7796319234565,24.6059476,1.478,14.7490214,1.478,15.016187
2208,8,0.995,0.1,0.5,3,2.5758293035489,0.05,1.244,2.0599285,1.20483425044143,2.18612292517965,2.7796319234565,24.8702907,1.478,14.6471617,1.478,14.5996238
2209,9,0.995,0.1,0.5,1,2.5758293035489,0.01,1.5,0.1759244,2.12540955151348,NaN,NaN,0.0059111,1.9,0.1781193,1.9,0.1792136
2210,9,0.995,0.1,0.5,1,2.5758293035489,0.05,1.5,0.1752742,2.12540955151348,NaN,NaN,0.0048881,1.9,0.1822408,1.9,0.1802947
2211,9,0.995,0.1,0.5,2,2.5758293035489,0.01,1.56,0.4763992,2.16218530798985,NaN,NaN,0.1022359,1.52,1.6274025,1.52,1.6487028
2212,9,0.995,0.1,0.5,2,2.5758293035489,0.05,1.56,0.4839327,2.16218530798985,NaN,NaN,0.0978422,1.52,1.5456067,1.52,1.5146893
2213,9,0.995,0.1,0.5,3,2.5758293035489,0.01,1.361,1.9986384,1.56428172462808,2.16736084602324,NaN,24.3094447,1.513,14.7652369,1.513,14.8785103
2214,9,0.995,0.1,0.5,3,2.5758293035489,0.05,1.361,1.9818676,1.56428172462808,2.16736084602324,NaN,24.373833,1.513,14.9481817,1.513,14.8784001
2215,10,0.995,0.1,0.5,1,2.5758293035489,0.01,1.7,0.2112881,1.60548449999245,NaN,NaN,0.006125,1.7,0.1723891,1.7,0.1719708
2216,10,0.995,0.1,0.5,1,2.5758293035489,0.05,1.7,0.2071201,1.60548449999245,NaN,NaN,0.0050013,1.7,0.1710128,1.7,0.1683355
2217,10,0.995,0.1,0.5,2,2.5758293035489,0.01,1.77,0.3645961,1.66421620034706,3.08515319369121,NaN,0.0920089,1.35,1.3941201,1.35,1.3834148
2218,10,0.995,0.1,0.5,2,2.5758293035489,0.05,1.77,0.3703942,1.66421620034706,3.08515319369121,NaN,0.1117506,1.35,1.3848836,1.35,1.3823841
2219,10,0.995,0.1,0.5,3,2.5758293035489,0.01,1.298,2.0199842,1.70868999281215,3.13007766799032,NaN,25.0285017,1.344,13.9072756,1.344,13.7590683
2220,10,0.995,0.1,0.5,3,2.5758293035489,0.05,1.298,2.015483,1.70868999281215,3.13007766799032,NaN,25.9629447,1.344,15.6825632,1.344,15.4735323
2221,1,0.995,0.1,1,1,2.5758293035489,0.01,1.5,0.3224657,1.58901131369469,3.12439454023123,NaN,0.0071073,1.3,0.1598262,1.3,0.1568548
2222,1,0.995,0.1,1,1,2.5758293035489,0.05,1.5,0.2824298,1.58901131369469,3.12439454023123,NaN,0.0095001,1.5,0.1811973,1.5,0.1732192
2223,1,0.995,0.1,1,2,2.5758293035489,0.01,1.51,0.4388852,1.68333788658938,3.09129379456539,NaN,0.0979294,1.05,1.2168653,1.04,1.188323
2224,1,0.995,0.1,1,2,2.5758293035489,0.05,1.83,0.4980994,1.68333788658938,3.09129379456539,NaN,0.0955595,1.49,1.3770434,1.1,1.1588386
2225,1,0.995,0.1,1,3,2.5758293035489,0.01,1.833,2.3119581,1.74548395770428,2.58832823045509,3.07608941521611,24.4254719,1.049,11.4347485,1.048,11.3810619
2226,1,0.995,0.1,1,3,2.5758293035489,0.05,1.833,2.260647,1.74548395770428,2.58832823045509,3.07608941521611,24.2962668,1.484,13.8391127,1.049,11.1858066
2227,2,0.995,0.1,1,1,2.5758293035489,0.01,2.5,0.4473593,1.47172665069696,2.63780576250529,NaN,0.0091009,1.3,0.1865299,1.3,0.1368201
2228,2,0.995,0.1,1,1,2.5758293035489,0.05,2.5,0.4067823,1.47172665069696,2.63780576250529,NaN,0.0082344,1.4,0.1548254,1.3,0.1761659
2229,2,0.995,0.1,1,2,2.5758293035489,0.01,2.58,0.6413338,1.64588293904599,2.57157295875307,3.93625489393231,0.0961497,1.08,1.1900761,1.08,1.3137457
2230,2,0.995,0.1,1,2,2.5758293035489,0.05,2.58,0.6188212,1.64588293904599,2.57157295875307,3.93625489393231,0.0980935,1.34,1.3126622,1.09,1.181442
2231,2,0.995,0.1,1,3,2.5758293035489,0.01,2.569,2.380547,1.76350527742862,2.55698819490601,3.92604264190417,25.1652548,1.085,11.7250686,1.08,11.8563789
2232,2,0.995,0.1,1,3,2.5758293035489,0.05,2.569,2.4223828,1.76350527742862,2.55698819490601,3.92604264190417,25.4651723,1.342,13.1346823,1.086,11.6994544
2233,3,0.995,0.1,1,1,2.5758293035489,0.01,1.5,0.250681,1.64597914999483,2.64454536680798,NaN,0.0058739,1.4,0.1909305,1.4,0.1477246
2234,3,0.995,0.1,1,1,2.5758293035489,0.05,1.5,0.2358674,1.64597914999483,2.64454536680798,NaN,0.0096369,1.4,0.1514862,1.4,0.146077
2235,3,0.995,0.1,1,2,2.5758293035489,0.01,2.05,0.6405127,1.74999021774367,2.69707697845581,NaN,0.1097674,1.1,1.2039108,1.1,1.3189083
2236,3,0.995,0.1,1,2,2.5758293035489,0.05,2.05,0.6662882,1.74999021774367,2.69707697845581,NaN,0.1043588,1.1,1.1841219,1.1,1.2002833
2237,3,0.995,0.1,1,3,2.5758293035489,0.01,1.795,2.3232112,1.78685173806568,2.63549346677054,2.95020917070875,24.605354,1.096,11.6778203,1.096,11.859118
2238,3,0.995,0.1,1,3,2.5758293035489,0.05,1.795,2.3280264,1.78685173806568,2.63549346677054,2.95020917070875,24.5844391,1.096,12.1517301,1.096,11.7140842
2239,4,0.995,0.1,1,1,2.5758293035489,0.01,1.5,0.2833204,1.74051193919212,3.01088702149188,NaN,0.0074778,1.4,0.1551483,1.4,0.1435747
2240,4,0.995,0.1,1,1,2.5758293035489,0.05,1.9,0.4563574,1.74051193919212,3.01088702149188,NaN,0.0063724,1.4,0.1466293,1.4,0.1473579
2241,4,0.995,0.1,1,2,2.5758293035489,0.01,1.5,0.353861,1.81661401230638,2.65159199989572,3.07570577995702,0.1104512,1.31,1.3263486,1.15,1.2392874
2242,4,0.995,0.1,1,2,2.5758293035489,0.05,1.95,0.4637925,1.81661401230638,2.65159199989572,3.07570577995702,0.108808,1.35,1.3458885,1.35,1.350654
2243,4,0.995,0.1,1,3,2.5758293035489,0.01,1.504,1.9128289,1.87126399243905,2.63587071026196,3.07616064861337,25.2873711,1.144,12.6665493,1.144,12.4214072
2244,4,0.995,0.1,1,3,2.5758293035489,0.05,1.504,1.9459662,1.87126399243905,2.63587071026196,3.07616064861337,25.48786,1.347,13.76089,1.144,12.7750866
2245,5,0.995,0.1,1,1,2.5758293035489,0.01,1.6,0.3076018,1.71191720243728,3.16389961728716,NaN,0.0079221,1.3,0.1349088,1.3,0.1389753
2246,5,0.995,0.1,1,1,2.5758293035489,0.05,1.6,0.2605395,1.71191720243728,3.16389961728716,NaN,0.0071204,1.4,0.141158,1.4,0.1386878
2247,5,0.995,0.1,1,2,2.5758293035489,0.01,1.82,0.4083302,1.81642099578559,2.64581803134623,3.10097744106862,0.1007724,1.07,1.1083175,1.07,1.0995549
2248,5,0.995,0.1,1,2,2.5758293035489,0.05,1.82,0.3983117,1.81642099578559,2.64581803134623,3.10097744106862,0.1108527,1.41,1.311194,1.41,1.3367087
2249,5,0.995,0.1,1,3,2.5758293035489,0.01,1.659,2.4078002,1.92010778563387,2.62862401774645,3.11220117752156,24.1790075,1.071,11.2987048,1.071,11.0605325
2250,5,0.995,0.1,1,3,2.5758293035489,0.05,1.659,2.4274324,1.92010778563387,2.62862401774645,3.11220117752156,24.4893456,1.413,12.9170712,1.106,11.2203655
2251,6,0.995,0.1,1,1,2.5758293035489,0.01,2.5,0.3446841,1.64153667502424,2.73570436066143,NaN,0.0065442,1.5,0.1488188,1.4,0.1542477
2252,6,0.995,0.1,1,1,2.5758293035489,0.05,2.5,0.3318266,1.64153667502424,2.73570436066143,NaN,0.0068218,1.5,0.1691067,1.5,0.1961013
2253,6,0.995,0.1,1,2,2.5758293035489,0.01,2.56,0.6862016,1.70549040750347,2.67163413055364,3.93284492375426,0.1011938,1.07,1.2033008,1.05,1.1680651
2254,6,0.995,0.1,1,2,2.5758293035489,0.05,2.56,0.6337756,1.70549040750347,2.67163413055364,3.93284492375426,0.090303,1.48,1.3914615,1.07,1.1514994
2255,6,0.995,0.1,1,3,2.5758293035489,0.01,1.75,2.4304284,1.7719131696379,2.65283034850552,3.91566536555376,25.8815744,1.036,11.2446525,1.036,11.1936354
2256,6,0.995,0.1,1,3,2.5758293035489,0.05,1.75,2.4383777,1.7719131696379,2.65283034850552,3.91566536555376,25.8175444,1.479,13.9261526,1.072,11.5231388
2257,7,0.995,0.1,1,1,2.5758293035489,0.01,2.6,0.375621,1.64765427381311,NaN,NaN,0.0061202,1.3,0.1339055,1.3,0.1309833
2258,7,0.995,0.1,1,1,2.5758293035489,0.05,2.6,0.3702753,1.64765427381311,NaN,NaN,0.0064761,2.2,0.1768816,1.3,0.1365635
2259,7,0.995,0.1,1,2,2.5758293035489,0.01,2.61,0.8002778,1.77131998796646,2.67296456254254,3.56986928934987,0.0874578,1.06,1.1403166,1.06,1.1656843
2260,7,0.995,0.1,1,2,2.5758293035489,0.05,2.61,0.7973634,1.77131998796646,2.67296456254254,3.56986928934987,0.0884168,1.07,1.1544476,1.06,1.1497296
2261,7,0.995,0.1,1,3,2.5758293035489,0.01,1.935,2.2417832,1.83389795580859,2.67735122461935,3.60370758966531,24.8017838,1.068,11.8364324,1.061,11.3981572
2262,7,0.995,0.1,1,3,2.5758293035489,0.05,1.935,2.2590841,1.83389795580859,2.67735122461935,3.60370758966531,24.7850019,1.072,11.8153971,1.071,12.3066817
2263,8,0.995,0.1,1,1,2.5758293035489,0.01,1.6,0.320091,2.67485394710862,NaN,NaN,0.0059238,1.3,0.149199,1.3,0.1678245
2264,8,0.995,0.1,1,1,2.5758293035489,0.05,2.5,0.5854754,2.67485394710862,NaN,NaN,0.0059292,1.3,0.1348859,1.3,0.1326043
2265,8,0.995,0.1,1,2,2.5758293035489,0.01,2,0.4747342,1.910949986863,2.62132594460114,NaN,0.1126989,0.99,1.0870261,0.99,1.0664092
2266,8,0.995,0.1,1,2,2.5758293035489,0.05,2,0.4897375,1.910949986863,2.62132594460114,NaN,0.0943804,0.99,1.0719277,0.99,1.0616299
2267,8,0.995,0.1,1,3,2.5758293035489,0.01,1.521,1.9408201,1.95829759601235,2.61430621373169,NaN,25.062826,0.979,10.8734912,0.979,10.6531958
2268,8,0.995,0.1,1,3,2.5758293035489,0.05,1.521,1.9459609,1.95829759601235,2.61430621373169,NaN,24.7683311,1.024,10.9468675,1.024,11.0545987
2269,9,0.995,0.1,1,1,2.5758293035489,0.01,1.4,0.2390603,1.8926795042979,2.93284292531153,NaN,0.0060301,1.4,0.1454616,1.4,0.1441693
2270,9,0.995,0.1,1,1,2.5758293035489,0.05,1.9,0.3676862,1.8926795042979,2.93284292531153,NaN,0.0063303,1.5,0.265914,1.4,0.2396067
2271,9,0.995,0.1,1,2,2.5758293035489,0.01,2.07,0.6717602,1.96743671474147,3.0418426029803,NaN,0.0973068,1.1,1.3660435,1.1,1.406088
2272,9,0.995,0.1,1,2,2.5758293035489,0.05,2.07,0.6287648,1.96743671474147,3.0418426029803,NaN,0.101377,1.14,1.3890683,1.12,1.203018
2273,9,0.995,0.1,1,3,2.5758293035489,0.01,1.374,1.9721781,1.45143863497987,2.04279266652572,3.04118767875883,25.5247559,1.046,11.3967792,1.046,11.3573155
2274,9,0.995,0.1,1,3,2.5758293035489,0.05,1.374,1.9696728,1.45143863497987,2.04279266652572,3.04118767875883,24.9939654,1.137,12.2563829,1.13,11.862945
2275,10,0.995,0.1,1,1,2.5758293035489,0.01,1.6,0.289189,1.60937167159945,2.61284018720044,NaN,0.0065348,1.3,0.131998,1.3,0.1351147
2276,10,0.995,0.1,1,1,2.5758293035489,0.05,1.6,0.2805901,1.60937167159945,2.61284018720044,NaN,0.0063193,1.5,0.1470557,1.3,0.1312615
2277,10,0.995,0.1,1,2,2.5758293035489,0.01,1.79,0.4778433,1.65799023801967,2.63979700027012,3.9669475189011,0.0981871,0.98,1.0586679,0.98,1.1116601
2278,10,0.995,0.1,1,2,2.5758293035489,0.05,1.79,0.4560204,1.65799023801967,2.63979700027012,3.9669475189011,0.0931482,1.01,1.0790739,0.98,1.0568337
2279,10,0.995,0.1,1,3,2.5758293035489,0.01,1.781,2.4123596,1.73060196514759,2.63258965256282,3.98166404057965,24.8121552,0.98,10.6097772,0.98,10.8946793
2280,10,0.995,0.1,1,3,2.5758293035489,0.05,1.781,2.4110343,1.73060196514759,2.63258965256282,3.98166404057965,24.6274548,1.011,10.9836185,0.98,10.7100233
2281,1,0.995,0.1,2,1,2.5758293035489,0.01,2.6,0.4579622,1.38441671030268,3.07918941502682,4.92817948293275,0.0075845,1.3,0.1339382,1.3,0.1254943
2282,1,0.995,0.1,2,1,2.5758293035489,0.05,2.6,0.445631,1.38441671030268,3.07918941502682,4.92817948293275,0.0087259,1.3,0.1338055,1.3,0.1270429
2283,1,0.995,0.1,2,2,2.5758293035489,0.01,2.59,0.4892201,1.49450710866801,2.69664324822003,3.08426461611411,0.1194659,1.29,1.221989,1.29,1.2256652
2284,1,0.995,0.1,2,2,2.5758293035489,0.05,2.59,0.4877916,1.49450710866801,2.69664324822003,3.08426461611411,0.0938811,1.3,1.235006,1.3,1.3051992
2285,1,0.995,0.1,2,3,2.5758293035489,0.01,2.591,2.8222395,1.58891768654556,2.69134626936708,3.09324529062345,25.1389636,1.291,12.2344453,1.288,12.3573275
2286,1,0.995,0.1,2,3,2.5758293035489,0.05,2.591,2.6432173,1.58891768654556,2.69134626936708,3.09324529062345,25.1250136,1.296,12.2916634,1.291,12.1486624
2287,2,0.995,0.1,2,1,2.5758293035489,0.01,2.6,0.4715183,1.47164965413088,2.85235782750792,NaN,0.0070298,1.3,0.131665,1.3,0.1304838
2288,2,0.995,0.1,2,1,2.5758293035489,0.05,4.6,1.0662259,1.47164965413088,2.85235782750792,NaN,0.0071839,1.3,0.1295021,1.3,0.128059
2289,2,0.995,0.1,2,2,2.5758293035489,0.01,2.58,0.5213828,1.56741305642871,2.90276219437453,3.69019838877985,0.1097377,1.29,1.2236337,1.29,1.2106632
2290,2,0.995,0.1,2,2,2.5758293035489,0.05,2.58,0.5014557,1.56741305642871,2.90276219437453,3.69019838877985,0.1282318,1.3,1.3213936,1.29,1.2839809
2291,2,0.995,0.1,2,3,2.5758293035489,0.01,1.681,2.4906226,1.63087548038114,2.89754273082673,3.71328862773663,25.1130671,1.291,12.0242172,1.287,11.9386614
2292,2,0.995,0.1,2,3,2.5758293035489,0.05,1.681,2.4270106,1.63087548038114,2.89754273082673,3.71328862773663,25.5726154,1.298,12.5368073,1.291,12.0123991
2293,3,0.995,0.1,2,1,2.5758293035489,0.01,1.6,0.340123,1.7137328864675,3.69729105335506,NaN,0.0072389,1.3,0.1368286,1.3,0.12836
2294,3,0.995,0.1,2,1,2.5758293035489,0.05,1.6,0.3472829,1.7137328864675,3.69729105335506,NaN,0.008648,1.4,0.1461389,1.3,0.1284956
2295,3,0.995,0.1,2,2,2.5758293035489,0.01,1.82,0.3773672,1.73960060660875,3.32849752135932,3.96839105315539,0.1131329,1.28,1.2154305,1.28,1.2042815
2296,3,0.995,0.1,2,2,2.5758293035489,0.05,1.82,0.3417937,1.73960060660875,3.32849752135932,3.96839105315539,0.096598,1.35,1.2702975,1.31,1.2648161
2297,3,0.995,0.1,2,3,2.5758293035489,0.01,1.614,2.4883184,1.78873787298911,3.48084415504194,3.98814069311004,24.9423088,1.279,12.1313617,1.279,12.3668472
2298,3,0.995,0.1,2,3,2.5758293035489,0.05,1.614,2.492795,1.78873787298911,3.48084415504194,3.98814069311004,24.979359,1.35,12.6756525,1.306,12.0825007
2299,4,0.995,0.1,2,1,2.5758293035489,0.01,1.4,0.358967,1.44660394018035,2.64898641104443,NaN,0.0078545,1.3,0.1351315,1.3,0.1303956
2300,4,0.995,0.1,2,1,2.5758293035489,0.05,2.5,0.6020415,1.44660394018035,2.64898641104443,NaN,0.0098107,1.8,0.1782041,1.8,0.1700684
2301,4,0.995,0.1,2,2,2.5758293035489,0.01,2.59,0.5648122,1.50712897683707,2.62396378822869,5.55396670015387,0.1006121,1.3,1.3875326,1.3,1.4204097
2302,4,0.995,0.1,2,2,2.5758293035489,0.05,2.59,0.5335887,1.50712897683707,2.62396378822869,5.55396670015387,0.1096174,1.45,1.4135139,1.77,1.5764449
2303,4,0.995,0.1,2,3,2.5758293035489,0.01,1.564,2.4112109,1.57308567079511,2.62150367317872,NaN,23.440133,1.295,13.1141786,1.295,13.0024293
2304,4,0.995,0.1,2,3,2.5758293035489,0.05,1.564,2.4042993,1.57308567079511,2.62150367317872,NaN,24.2093285,1.445,13.727537,1.771,15.5245903
2305,5,0.995,0.1,2,1,2.5758293035489,0.01,2.6,0.4039393,1.23899094366653,2.73044355715912,3.77318792936838,0.0080399,1.7,0.1468121,1.6,0.1477838
2306,5,0.995,0.1,2,1,2.5758293035489,0.05,2.6,0.3824841,1.23899094366653,2.73044355715912,3.77318792936838,0.0074584,1.7,0.147523,1.7,0.1487459
2307,5,0.995,0.1,2,2,2.5758293035489,0.01,2.59,0.3708546,1.34639313355083,2.69962055104515,3.82310008647744,0.0944865,1.63,1.4135315,1.6,1.375905
2308,5,0.995,0.1,2,2,2.5758293035489,0.05,2.59,0.3649892,1.34639313355083,2.69962055104515,3.82310008647744,0.094049,1.64,1.405386,1.63,1.4078782
2309,5,0.995,0.1,2,3,2.5758293035489,0.01,2.59,2.8047722,1.48218582874118,2.69628182605965,3.828863944197,25.2243673,1.633,13.7053031,1.595,13.5700062
2310,5,0.995,0.1,2,3,2.5758293035489,0.05,2.59,2.8867004,1.48218582874118,2.69628182605965,3.828863944197,25.1244296,1.633,13.641106,1.633,13.5951179
2311,6,0.995,0.1,2,1,2.5758293035489,0.01,2.7,0.4213784,1.51781434282303,2.81808107005749,NaN,0.0063345,1.5,0.1411814,1.4,0.136449
2312,6,0.995,0.1,2,1,2.5758293035489,0.05,2.7,0.4030875,1.51781434282303,2.81808107005749,NaN,0.0062149,1.8,0.1597804,1.8,0.1598997
2313,6,0.995,0.1,2,2,2.5758293035489,0.01,2.72,0.4938081,1.63564722989424,2.81970512839785,NaN,0.1035558,1.36,1.2577735,1.36,1.2454621
2314,6,0.995,0.1,2,2,2.5758293035489,0.05,2.72,0.508963,1.63564722989424,2.81970512839785,NaN,0.0822973,1.47,1.2932739,1.73,1.4411925
2315,6,0.995,0.1,2,3,2.5758293035489,0.01,1.646,2.5925617,1.68206656131461,2.79295267244062,NaN,24.7811479,1.36,12.4148936,1.359,12.2945871
2316,6,0.995,0.1,2,3,2.5758293035489,0.05,1.646,2.5065951,1.68206656131461,2.79295267244062,NaN,24.8944416,1.486,13.532273,1.725,14.2976734
2317,7,0.995,0.1,2,1,2.5758293035489,0.01,1.4,0.3581523,1.58135167199672,2.77584067332811,3.43772298107833,0.007702,1.3,0.1304335,1.3,0.1269269
2318,7,0.995,0.1,2,1,2.5758293035489,0.05,1.4,0.3352654,1.58135167199672,2.77584067332811,3.43772298107833,0.0089516,1.3,0.1317529,1.3,0.1314161
2319,7,0.995,0.1,2,2,2.5758293035489,0.01,1.41,0.2346469,1.68546399842874,3.54312080885593,NaN,0.1026002,1.28,1.2235861,1.28,1.221519
2320,7,0.995,0.1,2,2,2.5758293035489,0.05,1.41,0.228245,1.68546399842874,3.54312080885593,NaN,0.0878757,1.28,1.2187813,1.28,1.2206498
2321,7,0.995,0.1,2,3,2.5758293035489,0.01,1.422,2.4113107,1.72119468871385,3.39132435593065,NaN,24.3632386,1.282,12.1355284,1.281,12.5674728
2322,7,0.995,0.1,2,3,2.5758293035489,0.05,1.422,2.43265,1.72119468871385,3.39132435593065,NaN,23.822222,1.282,12.4539279,1.282,12.0543183
2323,8,0.995,0.1,2,1,2.5758293035489,0.01,3.1,0.6280576,1.46613839609459,2.80130187834635,NaN,0.006622,1.3,0.1329556,1.3,0.1329117
2324,8,0.995,0.1,2,1,2.5758293035489,0.05,3.1,0.6263247,1.46613839609459,2.80130187834635,NaN,0.0064786,1.3,0.1342994,1.3,0.131431
2325,8,0.995,0.1,2,2,2.5758293035489,0.01,3.09,0.7203528,1.53561298884009,2.75292658547082,3.54496120587191,0.1122676,1.3,1.275265,1.3,1.4156375
2326,8,0.995,0.1,2,2,2.5758293035489,0.05,3.09,0.8009658,1.53561298884009,2.75292658547082,3.54496120587191,0.1213929,1.31,1.3265523,1.3,1.2807094
2327,8,0.995,0.1,2,3,2.5758293035489,0.01,3.094,2.7331132,1.66173838121779,2.72793633168645,3.56160514382644,24.8265319,1.302,12.0691586,1.295,12.2569075
2328,8,0.995,0.1,2,3,2.5758293035489,0.05,3.094,2.7302495,1.66173838121779,2.72793633168645,3.56160514382644,24.8005307,1.304,12.0957363,1.304,12.1007445
2329,9,0.995,0.1,2,1,2.5758293035489,0.01,2.6,0.421489,1.44957170767062,2.74632333098686,NaN,0.0078508,1.4,0.1364424,1.3,0.1264625
2330,9,0.995,0.1,2,1,2.5758293035489,0.05,2.6,0.4228106,1.44957170767062,2.74632333098686,NaN,0.0070703,1.7,0.1540249,1.7,0.1510601
2331,9,0.995,0.1,2,2,2.5758293035489,0.01,2.62,0.4998839,1.52658037562929,2.70287558153859,3.69200266983599,0.1003747,1.35,1.2410595,1.31,1.3410455
2332,9,0.995,0.1,2,2,2.5758293035489,0.05,2.62,0.5275999,1.52658037562929,2.70287558153859,3.69200266983599,0.0880402,1.39,1.332168,1.39,1.3215782
2333,9,0.995,0.1,2,3,2.5758293035489,0.01,2.578,2.7575006,1.53262912466844,2.69397623344728,3.68269639100579,25.2328509,1.351,12.3212116,1.011,10.3481589
2334,9,0.995,0.1,2,3,2.5758293035489,0.05,2.578,2.7397796,1.53262912466844,2.69397623344728,3.68269639100579,25.0275308,1.384,12.9789258,1.384,12.6694455
2335,10,0.995,0.1,2,1,2.5758293035489,0.01,2.5,0.486588,1.4887095384327,4.41670596406446,NaN,0.0071858,1.3,0.1332512,1.3,0.129936
2336,10,0.995,0.1,2,1,2.5758293035489,0.05,5,0.9149509,1.4887095384327,4.41670596406446,NaN,0.0086645,1.5,0.1443673,1.5,0.1395703
2337,10,0.995,0.1,2,2,2.5758293035489,0.01,2.55,0.4787667,1.56140929997294,2.729564667465,4.28549586052523,0.0781686,1.29,1.2158668,1.29,1.2142832
2338,10,0.995,0.1,2,2,2.5758293035489,0.05,2.55,0.475299,1.56140929997294,2.729564667465,4.28549586052523,0.0869552,1.53,1.3584307,1.53,1.3636561
2339,10,0.995,0.1,2,3,2.5758293035489,0.01,2.549,2.538486,1.6481021337747,2.66758841089518,3.5657821504151,24.1728386,1.275,12.3791782,1.286,11.9242378
2340,10,0.995,0.1,2,3,2.5758293035489,0.05,2.549,2.490469,1.6481021337747,2.66758841089518,3.5657821504151,24.2824142,1.286,12.2196381,1.525,13.6423712
2341,1,0.995,0.15,0.5,1,2.5758293035489,0.01,1.8,0.2083538,1.67917657374105,NaN,NaN,0.0049887,3.7,0.3128054,3.7,0.2634596
2342,1,0.995,0.15,0.5,1,2.5758293035489,0.05,1.8,0.194184,1.67917657374105,NaN,NaN,0.0060281,3.7,0.3383627,3.7,0.2629394
2343,1,0.995,0.15,0.5,2,2.5758293035489,0.01,1.68,0.4106215,1.73902131645309,NaN,NaN,0.0856341,1.66,1.6748598,1.66,1.645708
2344,1,0.995,0.15,0.5,2,2.5758293035489,0.05,1.68,0.4254059,1.73902131645309,NaN,NaN,0.0854818,1.66,1.6750707,1.66,1.6390022
2345,1,0.995,0.15,0.5,3,2.5758293035489,0.01,1.644,1.9118132,1.79290024695752,2.56994371647777,NaN,24.0769014,1.632,16.1048121,1.632,16.2570199
2346,1,0.995,0.15,0.5,3,2.5758293035489,0.05,1.644,1.9431648,1.79290024695752,2.56994371647777,NaN,24.0688399,1.632,16.0102266,1.632,16.033615
2347,2,0.995,0.15,0.5,1,2.5758293035489,0.01,1.6,0.1903444,2.12547714012934,NaN,NaN,0.005257,2,0.1899889,2,0.1900764
2348,2,0.995,0.15,0.5,1,2.5758293035489,0.05,2.1,0.3245558,2.12547714012934,NaN,NaN,0.0052981,2,0.190016,2,0.18872
2349,2,0.995,0.15,0.5,2,2.5758293035489,0.01,1.68,0.4727047,2.1541811683498,2.47668306526142,NaN,0.0835772,1.61,1.661118,1.61,1.7776521
2350,2,0.995,0.15,0.5,2,2.5758293035489,0.05,1.68,0.4724685,2.1541811683498,2.47668306526142,NaN,0.0746673,1.67,1.6993728,1.67,1.7109207
2351,2,0.995,0.15,0.5,3,2.5758293035489,0.01,1.181,1.9970655,2.13308382973492,2.48919869829404,NaN,24.2475686,1.586,15.8581017,1.586,15.7696785
2352,2,0.995,0.15,0.5,3,2.5758293035489,0.05,1.181,1.9869828,2.13308382973492,2.48919869829404,NaN,24.5345138,1.586,15.6388268,1.586,15.8956971
2353,3,0.995,0.15,0.5,1,2.5758293035489,0.01,1.5,0.2199839,2.33953161689528,NaN,NaN,0.0054022,1.7,0.1683623,1.7,0.1640709
2354,3,0.995,0.15,0.5,1,2.5758293035489,0.05,1.5,0.2116556,2.33953161689528,NaN,NaN,0.0053823,1.7,0.1674529,1.7,0.1646691
2355,3,0.995,0.15,0.5,2,2.5758293035489,0.01,1.53,0.4803924,2.37200359482629,NaN,NaN,0.0946242,1.44,1.4463508,1.44,1.426234
2356,3,0.995,0.15,0.5,2,2.5758293035489,0.05,1.53,0.4768068,2.37200359482629,NaN,NaN,0.0781983,1.46,1.4419303,1.44,1.4558257
2357,3,0.995,0.15,0.5,3,2.5758293035489,0.01,1.531,2.0539533,1.87674411747277,2.3463220038831,NaN,24.2131598,1.423,14.0151962,1.423,14.2791234
2358,3,0.995,0.15,0.5,3,2.5758293035489,0.05,1.531,1.9566617,1.87674411747277,2.3463220038831,NaN,23.8716518,1.423,14.03508,1.423,14.0342682
2359,4,0.995,0.15,0.5,1,2.5758293035489,0.01,1.5,0.1934952,1.89237717627445,NaN,NaN,0.0054424,1.9,0.1888146,1.9,0.1871136
2360,4,0.995,0.15,0.5,1,2.5758293035489,0.05,1.9,0.3130924,1.89237717627445,NaN,NaN,0.0055222,1.9,0.1883853,1.9,0.1926049
2361,4,0.995,0.15,0.5,2,2.5758293035489,0.01,1.57,0.4595345,1.91668004126453,2.64740264170181,NaN,0.0775126,1.52,1.5256777,1.52,1.5315747
2362,4,0.995,0.15,0.5,2,2.5758293035489,0.05,1.57,0.4685126,1.91668004126453,2.64740264170181,NaN,0.0885528,1.57,1.6397372,1.52,1.6400502
2363,4,0.995,0.15,0.5,3,2.5758293035489,0.01,1.919,2.3236319,1.94141771280612,2.64553955580671,NaN,24.2834721,1.476,14.8310224,1.476,14.8246088
2364,4,0.995,0.15,0.5,3,2.5758293035489,0.05,1.919,2.3070299,1.94141771280612,2.64553955580671,NaN,24.6191345,1.476,15.2549552,1.476,14.9125906
2365,5,0.995,0.15,0.5,1,2.5758293035489,0.01,1.6,0.2172379,1.58779098626766,NaN,NaN,0.0065155,3.6,0.2567184,3.6,0.2563175
2366,5,0.995,0.15,0.5,1,2.5758293035489,0.05,1.6,0.2133439,1.58779098626766,NaN,NaN,0.0046803,3.6,0.2737784,3.6,0.2704571
2367,5,0.995,0.15,0.5,2,2.5758293035489,0.01,1.49,0.3681424,1.65359001445357,2.68008390688579,2.86770633550201,0.0985015,1.55,1.5703873,1.55,1.5569489
2368,5,0.995,0.15,0.5,2,2.5758293035489,0.05,1.49,0.3467058,1.65359001445357,2.68008390688579,2.86770633550201,0.0855375,1.55,1.5441521,1.55,1.5428602
2369,5,0.995,0.15,0.5,3,2.5758293035489,0.01,1.498,1.9989891,1.65832209792106,2.64357214849017,2.86980236225475,24.7317612,1.498,15.2714639,1.498,14.826137
2370,5,0.995,0.15,0.5,3,2.5758293035489,0.05,1.498,2.0158045,1.65832209792106,2.64357214849017,2.86980236225475,25.039064,1.535,15.5743613,1.535,15.1147686
2371,6,0.995,0.15,0.5,1,2.5758293035489,0.01,1.6,0.2229872,2.35308065174586,NaN,NaN,0.0047854,1.8,0.1756442,1.8,0.1729376
2372,6,0.995,0.15,0.5,1,2.5758293035489,0.05,1.9,0.4173552,2.35308065174586,NaN,NaN,0.0050075,1.8,0.1688415,1.8,0.1707308
2373,6,0.995,0.15,0.5,2,2.5758293035489,0.01,1.71,0.4718892,2.27058543307047,3.02702643458353,NaN,0.0912201,1.45,1.4387715,1.45,1.4444295
2374,6,0.995,0.15,0.5,2,2.5758293035489,0.05,1.71,0.4608352,2.27058543307047,3.02702643458353,NaN,0.0848188,1.45,1.4435367,1.45,1.440556
2375,6,0.995,0.15,0.5,3,2.5758293035489,0.01,1.268,1.8897154,1.24147580605059,1.93767910385751,2.25971848959998,24.2143699,1.427,15.3816427,1.427,14.1338971
2376,6,0.995,0.15,0.5,3,2.5758293035489,0.05,1.268,1.8821679,1.24147580605059,1.93767910385751,2.25971848959998,24.0800394,1.427,14.4742819,1.427,14.4309983
2377,7,0.995,0.15,0.5,1,2.5758293035489,0.01,1.6,0.2286365,2.14695480704433,NaN,NaN,0.0051363,1.6,0.1569379,1.6,0.1588759
2378,7,0.995,0.15,0.5,1,2.5758293035489,0.05,2,0.4230103,2.14695480704433,NaN,NaN,0.005869,1.6,0.1570473,1.6,0.1560774
2379,7,0.995,0.15,0.5,2,2.5758293035489,0.01,1.64,0.4777016,2.0422468620719,NaN,NaN,0.0887661,1.29,1.3057367,1.29,1.3031386
2380,7,0.995,0.15,0.5,2,2.5758293035489,0.05,2.01,0.618771,2.0422468620719,NaN,NaN,0.1008358,1.38,1.3619774,1.38,1.3642421
2381,7,0.995,0.15,0.5,3,2.5758293035489,0.01,1.285,1.9418746,2.02410705323247,NaN,NaN,25.1868134,1.283,13.1355438,1.283,13.4784076
2382,7,0.995,0.15,0.5,3,2.5758293035489,0.05,1.285,2.0105527,2.02410705323247,NaN,NaN,24.7931482,1.287,12.8970994,1.375,13.6450298
2383,8,0.995,0.15,0.5,1,2.5758293035489,0.01,1.7,0.1979711,2.04108492522684,NaN,NaN,0.0049923,2.1,0.1969542,2.1,0.1941887
2384,8,0.995,0.15,0.5,1,2.5758293035489,0.05,1.7,0.1976091,2.04108492522684,NaN,NaN,0.0046237,2.1,0.1991176,2.1,0.1963938
2385,8,0.995,0.15,0.5,2,2.5758293035489,0.01,1.72,0.4864772,2.24293802762099,NaN,NaN,0.0849437,1.72,1.6668671,1.72,1.6826258
2386,8,0.995,0.15,0.5,2,2.5758293035489,0.05,1.72,0.4662133,2.24293802762099,NaN,NaN,0.099546,1.72,1.6772739,1.72,1.8941241
2387,8,0.995,0.15,0.5,3,2.5758293035489,0.01,1.73,1.9955654,1.73510080322662,2.28226156768006,NaN,25.1333549,1.702,16.2120675,1.702,16.5620235
2388,8,0.995,0.15,0.5,3,2.5758293035489,0.05,1.73,1.9536305,1.73510080322662,2.28226156768006,NaN,25.3369902,1.702,16.1892525,1.702,16.4550724
2389,9,0.995,0.15,0.5,1,2.5758293035489,0.01,1.4,0.226815,NaN,NaN,NaN,0.00369,1.8,0.1726455,1.8,0.173364
2390,9,0.995,0.15,0.5,1,2.5758293035489,0.05,1.4,0.2270643,NaN,NaN,NaN,0.0030209,1.8,0.1698424,1.8,0.1682564
2391,9,0.995,0.15,0.5,2,2.5758293035489,0.01,1.44,0.3744761,NaN,NaN,NaN,0.0861496,1.39,1.3894122,1.39,1.3921274
2392,9,0.995,0.15,0.5,2,2.5758293035489,0.05,1.44,0.3811389,NaN,NaN,NaN,0.0938105,1.39,1.3986864,1.39,1.4088012
2393,9,0.995,0.15,0.5,3,2.5758293035489,0.01,1.444,1.9201716,1.46482238629769,1.75055190437578,2.50958166116305,25.301444,1.345,13.6713119,1.345,13.9631627
2394,9,0.995,0.15,0.5,3,2.5758293035489,0.05,1.444,1.9119561,1.46482238629769,1.75055190437578,2.50958166116305,25.7751282,1.365,13.8035178,1.35,13.5683352
2395,10,0.995,0.15,0.5,1,2.5758293035489,0.01,1.4,0.2190028,NaN,NaN,NaN,0.0030995,1.5,0.1568897,1.5,0.1529299
2396,10,0.995,0.15,0.5,1,2.5758293035489,0.05,2.1,0.3416457,NaN,NaN,NaN,0.0030955,1.5,0.1591369,1.5,0.1480326
2397,10,0.995,0.15,0.5,2,2.5758293035489,0.01,1.43,0.3461998,2.64948641516829,NaN,NaN,0.0884929,1.35,1.351982,1.24,1.299272
2398,10,0.995,0.15,0.5,2,2.5758293035489,0.05,2.18,0.5285266,2.64948641516829,NaN,NaN,0.1048865,1.42,1.4784148,1.42,1.4706083
2399,10,0.995,0.15,0.5,3,2.5758293035489,0.01,1.417,1.847133,1.67888652571338,2.17266743577655,2.63365590030299,24.3402023,1.243,12.9755956,1.229,12.8917972
2400,10,0.995,0.15,0.5,3,2.5758293035489,0.05,1.417,1.8342043,1.67888652571338,2.17266743577655,2.63365590030299,24.009368,1.405,14.3135913,1.405,13.8412783
2401,1,0.995,0.15,1,1,2.5758293035489,0.01,1.7,0.3808845,NaN,NaN,NaN,0.0039017,1.3,0.1299878,1.3,0.1263419
2402,1,0.995,0.15,1,1,2.5758293035489,0.05,2,0.5688005,NaN,NaN,NaN,0.0038319,1.5,0.1399408,1.4,0.1342181
2403,1,0.995,0.15,1,2,2.5758293035489,0.01,1.74,0.489372,3.35157087697553,NaN,NaN,0.0833535,1.02,1.0515338,1.02,1.0618854
2404,1,0.995,0.15,1,2,2.5758293035489,0.05,1.74,0.5180502,3.35157087697553,NaN,NaN,0.0762199,1.03,1.0615797,1.02,1.0451951
2405,1,0.995,0.15,1,3,2.5758293035489,0.01,1.748,2.4243582,2.0394513355439,2.16141822174444,2.64462044723335,24.3033989,1.024,10.6962303,1.019,10.6770539
2406,1,0.995,0.15,1,3,2.5758293035489,0.05,1.748,2.4086421,2.0394513355439,2.16141822174444,2.64462044723335,24.3410963,1.028,10.797656,1.028,10.5224358
2407,2,0.995,0.15,1,1,2.5758293035489,0.01,1.6,0.2764424,1.63994118029671,2.75703310601164,4.11771882806388,0.008121,1.4,0.138017,1.3,0.1303677
2408,2,0.995,0.15,1,1,2.5758293035489,0.05,1.6,0.2718265,1.63994118029671,2.75703310601164,4.11771882806388,0.0077865,1.4,0.1360631,1.4,0.1363424
2409,2,0.995,0.15,1,2,2.5758293035489,0.01,1.86,0.4665759,1.73405404912413,2.69474768547521,3.88150249684873,0.1100225,0.99,1.0238469,0.99,1.0244674
2410,2,0.995,0.15,1,2,2.5758293035489,0.05,1.86,0.4592383,1.73405404912413,2.69474768547521,3.88150249684873,0.0977745,1,1.1265035,1,1.133987
2411,2,0.995,0.15,1,3,2.5758293035489,0.01,1.591,2.7014217,1.82001978737174,2.6939887142191,3.87716362515853,24.9462063,0.992,10.3474974,0.992,10.4718417
2412,2,0.995,0.15,1,3,2.5758293035489,0.05,1.591,2.5296747,1.82001978737174,2.6939887142191,3.87716362515853,24.9065843,1.002,10.2474889,0.999,10.2967741
2413,3,0.995,0.15,1,1,2.5758293035489,0.01,1.5,0.2703085,2.49586734610835,3.51851830836064,NaN,0.0069669,1.3,0.1366027,1.3,0.134484
2414,3,0.995,0.15,1,1,2.5758293035489,0.05,1.8,0.4546827,2.49586734610835,3.51851830836064,NaN,0.00607,1.3,0.1317356,1.3,0.1333232
2415,3,0.995,0.15,1,2,2.5758293035489,0.01,1.48,0.3788455,1.77691730270341,2.45595294108422,NaN,0.0963377,0.97,1.0395008,0.97,1.0273146
2416,3,0.995,0.15,1,2,2.5758293035489,0.05,1.8,0.5146008,1.77691730270341,2.45595294108422,NaN,0.0970549,1.38,1.293823,0.97,1.030001
2417,3,0.995,0.15,1,3,2.5758293035489,0.01,1.489,1.9118092,1.79409654309562,2.44250756445858,3.52519208786449,24.7803239,0.995,10.8800831,0.972,10.3402566
2418,3,0.995,0.15,1,3,2.5758293035489,0.05,1.489,1.9452981,1.79409654309562,2.44250756445858,3.52519208786449,24.6681307,1.302,12.4897085,1.01,11.0288446
2419,4,0.995,0.15,1,1,2.5758293035489,0.01,2.5,0.5945533,1.97720120738729,NaN,NaN,0.0075997,1.3,0.1362417,1.3,0.1365164
2420,4,0.995,0.15,1,1,2.5758293035489,0.05,2.5,0.6101717,1.97720120738729,NaN,NaN,0.0079626,1.3,0.137853,1.3,0.1362806
2421,4,0.995,0.15,1,2,2.5758293035489,0.01,1.53,0.4713732,1.94750936108794,2.92807154157144,NaN,0.0898381,1.1,1.1302796,1.09,1.1372247
2422,4,0.995,0.15,1,2,2.5758293035489,0.05,1.9,0.5547264,1.94750936108794,2.92807154157144,NaN,0.0892939,1.1,1.1573635,1.1,1.1517855
2423,4,0.995,0.15,1,3,2.5758293035489,0.01,1.724,2.3696547,1.10410790959814,1.92571045066725,2.94068342474892,24.2474801,1.101,11.8318959,1.099,11.4734362
2424,4,0.995,0.15,1,3,2.5758293035489,0.05,1.944,2.5107131,1.10410790959814,1.92571045066725,2.94068342474892,24.2934964,1.113,11.8737479,1.102,11.6382947
2425,5,0.995,0.15,1,1,2.5758293035489,0.01,2,0.5128936,1.76364865041346,2.67587637351777,3.43901952209891,0.0067993,1.3,0.1297111,1.3,0.1676407
2426,5,0.995,0.15,1,1,2.5758293035489,0.05,2.6,0.7177393,1.76364865041346,2.67587637351777,3.43901952209891,0.0188132,1.3,0.1349375,1.3,0.1405158
2427,5,0.995,0.15,1,2,2.5758293035489,0.01,1.42,0.286629,1.84192256815026,2.68117786059478,3.42416869785603,0.1202541,0.96,1.0187382,0.95,0.9988186
2428,5,0.995,0.15,1,2,2.5758293035489,0.05,1.98,0.3890374,1.84192256815026,2.68117786059478,3.42416869785603,0.1159502,0.97,1.0014392,0.96,1.0017391
2429,5,0.995,0.15,1,3,2.5758293035489,0.01,1.368,2.0830573,1.93480963262732,2.73767098407983,3.42202679130599,25.7802721,0.955,9.9068798,0.955,10.0020705
2430,5,0.995,0.15,1,3,2.5758293035489,0.05,1.368,2.066744,1.93480963262732,2.73767098407983,3.42202679130599,25.5646905,0.97,10.3606302,0.968,9.980529
2431,6,0.995,0.15,1,1,2.5758293035489,0.01,1.7,0.2583216,1.78589463730137,NaN,NaN,0.0059178,1.4,0.1383191,1.4,0.141348
2432,6,0.995,0.15,1,1,2.5758293035489,0.05,1.7,0.2494386,1.78589463730137,NaN,NaN,0.0061247,1.4,0.1386843,1.4,0.1397059
2433,6,0.995,0.15,1,2,2.5758293035489,0.01,1.66,0.2918146,1.80197667504493,NaN,NaN,0.0817412,1.41,1.3223007,1.41,1.3146622
2434,6,0.995,0.15,1,2,2.5758293035489,0.05,1.66,0.2722917,1.80197667504493,NaN,NaN,0.1010764,1.41,1.3119185,1.41,1.3312247
2435,6,0.995,0.15,1,3,2.5758293035489,0.01,1.667,2.418768,1.85922046216084,NaN,NaN,24.1966532,1.404,12.8509303,1.404,13.4772369
2436,6,0.995,0.15,1,3,2.5758293035489,0.05,1.667,2.4357762,1.85922046216084,NaN,NaN,24.2298753,1.404,13.225732,1.404,12.8998791
2437,7,0.995,0.15,1,1,2.5758293035489,0.01,1.7,0.2550471,1.53764079250071,2.66116012829468,NaN,0.0076603,1.5,0.1447957,1.5,0.1425029
2438,7,0.995,0.15,1,1,2.5758293035489,0.05,2.5,0.3593059,1.53764079250071,2.66116012829468,NaN,0.0063385,1.5,0.1760815,1.5,0.1686576
2439,7,0.995,0.15,1,2,2.5758293035489,0.01,2.56,0.6997681,1.64935974156389,2.60873788645862,3.06365331736473,0.1028365,1.02,1.1720928,1.02,1.1395735
2440,7,0.995,0.15,1,2,2.5758293035489,0.05,2.56,0.6278344,1.64935974156389,2.60873788645862,3.06365331736473,0.1063894,1.03,1.1860578,1.02,1.0853646
2441,7,0.995,0.15,1,3,2.5758293035489,0.01,1.83,2.2675803,1.73533530022262,2.60463541591623,3.03438098901599,23.5317416,1.02,10.8084896,1.018,11.0523021
2442,7,0.995,0.15,1,3,2.5758293035489,0.05,1.83,2.2540678,1.73533530022262,2.60463541591623,3.03438098901599,24.0216267,1.032,10.898873,1.02,10.8565798
2443,8,0.995,0.15,1,1,2.5758293035489,0.01,2.5,0.3997374,1.41299758390428,2.71338780320351,NaN,0.0078148,1.7,0.1758317,1.3,0.138396
2444,8,0.995,0.15,1,1,2.5758293035489,0.05,2.5,0.3919882,1.41299758390428,2.71338780320351,NaN,0.0067408,1.7,0.1597612,1.7,0.15612
2445,8,0.995,0.15,1,2,2.5758293035489,0.01,2.59,0.4914914,1.51707389964921,2.66946939403798,3.09463189239814,0.0778613,1.05,1.111278,1.02,1.1029485
2446,8,0.995,0.15,1,2,2.5758293035489,0.05,2.59,0.48364,1.51707389964921,2.66946939403798,3.09463189239814,0.0935449,1.67,1.4786708,1.05,1.1235823
2447,8,0.995,0.15,1,3,2.5758293035489,0.01,2.594,2.8275562,1.5890187540318,2.65197305380025,3.12686441693912,25.5325996,1.037,11.0436258,1.022,10.9448004
2448,8,0.995,0.15,1,3,2.5758293035489,0.05,2.594,2.7518843,1.5890187540318,2.65197305380025,3.12686441693912,25.3801975,1.658,14.844498,1.038,11.0051313
2449,9,0.995,0.15,1,1,2.5758293035489,0.01,1.8,0.2505736,1.7986986227386,3.12778579964415,NaN,0.0060684,1.3,0.1361135,1.3,0.1392152
2450,9,0.995,0.15,1,1,2.5758293035489,0.05,1.8,0.2618855,1.7986986227386,3.12778579964415,NaN,0.0062434,1.4,0.1432896,1.4,0.1388134
2451,9,0.995,0.15,1,2,2.5758293035489,0.01,1.49,0.3721602,1.82122191625161,2.6530840070476,3.14676025846997,0.1002522,1.03,1.0893097,1.03,1.090658
2452,9,0.995,0.15,1,2,2.5758293035489,0.05,1.85,0.458098,1.82122191625161,2.6530840070476,3.14676025846997,0.1047,1.04,1.0872779,1.03,1.0989683
2453,9,0.995,0.15,1,3,2.5758293035489,0.01,1.762,2.5386199,1.85452821954845,2.62551338074818,3.14835018407049,25.0164934,1.032,10.908186,1.031,11.2277927
2454,9,0.995,0.15,1,3,2.5758293035489,0.05,1.762,2.5446155,1.85452821954845,2.62551338074818,3.14835018407049,25.1005765,1.064,11.1155113,1.032,11.1547147
2455,10,0.995,0.15,1,1,2.5758293035489,0.01,1.6,0.2828863,1.64138130209518,2.95511546238381,NaN,0.0067789,1.4,0.139903,1.4,0.1434052
2456,10,0.995,0.15,1,1,2.5758293035489,0.05,1.6,0.2594547,1.64138130209518,2.95511546238381,NaN,0.0066616,1.5,0.1448635,1.5,0.1391009
2457,10,0.995,0.15,1,2,2.5758293035489,0.01,1.57,0.3654603,1.70825891353832,3.11077464584226,3.94180498212973,0.1136811,1.01,1.0458755,1.01,1.0491346
2458,10,0.995,0.15,1,2,2.5758293035489,0.05,1.57,0.3603716,1.70825891353832,3.11077464584226,3.94180498212973,0.1073916,1.02,1.0598124,1.01,1.044319
2459,10,0.995,0.15,1,3,2.5758293035489,0.01,1.581,2.5064195,1.79924902102883,2.90705051588698,3.14374559240641,25.1122973,1.012,10.3487593,1.009,10.3057149
2460,10,0.995,0.15,1,3,2.5758293035489,0.05,1.581,2.6061342,1.79924902102883,2.90705051588698,3.14374559240641,25.4658324,1.018,10.5143069,1.018,10.5450863
2461,1,0.995,0.15,2,1,2.5758293035489,0.01,2.5,0.4666508,1.40463679695153,2.69235204606561,4.47217989292434,0.0082606,1.5,0.1434751,1.4,0.1346364
2462,1,0.995,0.15,2,1,2.5758293035489,0.05,2.5,0.4663169,1.40463679695153,2.69235204606561,4.47217989292434,0.0078096,1.5,0.1425396,1.5,0.1416698
2463,1,0.995,0.15,2,2,2.5758293035489,0.01,2.57,0.3793177,1.50021820828166,2.65624815781579,3.21330157169992,0.0937376,1.44,1.3203408,1.34,1.2512684
2464,1,0.995,0.15,2,2,2.5758293035489,0.05,2.57,0.3906529,1.50021820828166,2.65624815781579,3.21330157169992,0.0992475,1.46,1.3453017,1.44,1.3480449
2465,1,0.995,0.15,2,3,2.5758293035489,0.01,2.57,2.6103099,1.60237282561915,2.64001110424587,3.22468747527076,26.5041988,1.442,13.3981519,1.061,10.6043151
2466,1,0.995,0.15,2,3,2.5758293035489,0.05,2.57,2.6402178,1.60237282561915,2.64001110424587,3.22468747527076,24.7843616,1.453,13.1382877,1.453,13.4051068
2467,2,0.995,0.15,2,1,2.5758293035489,0.01,2.6,0.5107818,1.55649614658962,3.17281124048748,4.2349649424351,0.0075624,1.3,0.1291819,1.3,0.1290818
2468,2,0.995,0.15,2,1,2.5758293035489,0.05,2.6,0.5142737,1.55649614658962,3.17281124048748,4.2349649424351,0.0078015,1.3,0.1340102,1.3,0.129969
2469,2,0.995,0.15,2,2,2.5758293035489,0.01,2.57,0.454193,1.65577137822902,3.15276302117522,4.33433051809048,0.1009817,1.28,1.2610384,1.26,1.2304972
2470,2,0.995,0.15,2,2,2.5758293035489,0.05,2.57,0.4735274,1.65577137822902,3.15276302117522,4.33433051809048,0.0997089,1.29,1.251795,1.28,1.2757055
2471,2,0.995,0.15,2,3,2.5758293035489,0.01,2.572,2.850726,1.68930959147803,3.17135976721011,4.31249930127778,25.336835,1.122,11.1322558,1.122,11.4593823
2472,2,0.995,0.15,2,3,2.5758293035489,0.05,2.572,2.8889451,1.68930959147803,3.17135976721011,4.31249930127778,25.0895068,1.284,12.0723044,1.277,12.2020077
2473,3,0.995,0.15,2,1,2.5758293035489,0.01,2.6,0.457245,1.42768151689974,3.22207973414647,5.07790156299209,0.0086546,1.3,0.1301526,1.3,0.1280224
2474,3,0.995,0.15,2,1,2.5758293035489,0.05,2.6,0.4559806,1.42768151689974,3.22207973414647,5.07790156299209,0.008474,1.3,0.1283059,1.3,0.1314847
2475,3,0.995,0.15,2,2,2.5758293035489,0.01,2.58,0.4866336,1.56418416694615,2.71403713709322,3.17194532997961,0.0938008,1.28,1.2073176,1.28,1.2116268
2476,3,0.995,0.15,2,2,2.5758293035489,0.05,2.58,0.4856978,1.56418416694615,2.71403713709322,3.17194532997961,0.0789068,1.29,1.2169618,1.29,1.2079349
2477,3,0.995,0.15,2,3,2.5758293035489,0.01,2.576,3.0494675,1.65838743136153,2.69310336550386,3.17446189729257,25.4034346,1.282,11.9230192,1.282,12.273491
2478,3,0.995,0.15,2,3,2.5758293035489,0.05,2.576,2.9237825,1.65838743136153,2.69310336550386,3.17446189729257,25.3130401,1.288,11.958,1.288,12.0879455
2479,4,0.995,0.15,2,1,2.5758293035489,0.01,2.6,0.5669231,1.44739586117593,2.70859844320338,3.54980840538285,0.0081967,1.3,0.1483571,1.3,0.1499624
2480,4,0.995,0.15,2,1,2.5758293035489,0.05,2.6,0.5715672,1.44739586117593,2.70859844320338,3.54980840538285,0.0092907,1.3,0.1931997,1.3,0.1300876
2481,4,0.995,0.15,2,2,2.5758293035489,0.01,2.57,0.4301932,1.53845904630943,2.68728120859232,3.65087818141636,0.0953515,1.3,1.3043463,1.3,1.2684755
2482,4,0.995,0.15,2,2,2.5758293035489,0.05,2.57,0.3908053,1.53845904630943,2.68728120859232,3.65087818141636,0.1090606,1.33,1.2777861,1.31,1.2585027
2483,4,0.995,0.15,2,3,2.5758293035489,0.01,2.587,2.8780015,1.60581499902985,2.67200128132095,3.66181093117625,24.1991852,1.294,12.4153457,1.287,12.2427227
2484,4,0.995,0.15,2,3,2.5758293035489,0.05,2.587,2.7977851,1.60581499902985,2.67200128132095,3.66181093117625,24.1535332,1.303,12.8273035,1.303,12.3518154
2485,5,0.995,0.15,2,1,2.5758293035489,0.01,1.9,0.4717795,1.79165526248687,2.70065884015116,3.84003486687043,0.0063805,1.3,0.1284511,1.3,0.1310827
2486,5,0.995,0.15,2,1,2.5758293035489,0.05,1.9,0.4536101,1.79165526248687,2.70065884015116,3.84003486687043,0.0065546,1.3,0.1326967,1.3,0.1273599
2487,5,0.995,0.15,2,2,2.5758293035489,0.01,1.7,0.4134979,1.86368716059751,2.64216351782584,3.9424254843804,0.0765938,1.02,1.0616694,1.02,1.0512007
2488,5,0.995,0.15,2,2,2.5758293035489,0.05,1.7,0.3873309,1.86368716059751,2.64216351782584,3.9424254843804,0.0886889,1.3,1.2310782,1.3,1.221533
2489,5,0.995,0.15,2,3,2.5758293035489,0.01,1.691,2.4323305,1.92374556988277,2.6394657438502,3.93017931373749,24.1745208,0.999,10.3545048,1.017,10.7916066
2490,5,0.995,0.15,2,3,2.5758293035489,0.05,1.691,2.4145533,1.92374556988277,2.6394657438502,3.93017931373749,24.3351045,1.069,10.7687452,1.296,12.3802425
2491,6,0.995,0.15,2,1,2.5758293035489,0.01,1.8,0.4826928,1.79211668971826,4.25667775747285,NaN,0.0079842,1.3,0.1303343,1.3,0.1279417
2492,6,0.995,0.15,2,1,2.5758293035489,0.05,1.8,0.4824668,1.79211668971826,4.25667775747285,NaN,0.0074894,1.4,0.1403308,1.4,0.1330036
2493,6,0.995,0.15,2,2,2.5758293035489,0.01,1.48,0.2469352,1.8071312521416,3.7783366629324,4.18245624840908,0.1050329,1.3,1.2284935,1.3,1.2350205
2494,6,0.995,0.15,2,2,2.5758293035489,0.05,1.83,0.3728469,1.8071312521416,3.7783366629324,4.18245624840908,0.0915003,1.3,1.2338946,1.31,1.2561359
2495,6,0.995,0.15,2,3,2.5758293035489,0.01,1.726,2.5459291,1.841347572844,2.65792199589244,3.77490763390119,25.954163,1.299,12.2360507,1.299,12.5833919
2496,6,0.995,0.15,2,3,2.5758293035489,0.05,1.726,2.59761,1.841347572844,2.65792199589244,3.77490763390119,25.7469712,1.299,12.2070465,1.312,12.2454027
2497,7,0.995,0.15,2,1,2.5758293035489,0.01,2.6,0.5252747,1.45026184703727,3.96138690154449,NaN,0.0072809,1.3,0.1295651,1.3,0.1266147
2498,7,0.995,0.15,2,1,2.5758293035489,0.05,4.1,0.7287505,1.45026184703727,3.96138690154449,NaN,0.0070153,1.3,0.1276862,1.3,0.1310878
2499,7,0.995,0.15,2,2,2.5758293035489,0.01,2.57,0.461219,1.56229558930403,3.93966383326434,4.60263868638889,0.0839798,1.29,1.2477075,1.27,1.2227541
2500,7,0.995,0.15,2,2,2.5758293035489,0.05,2.57,0.4606392,1.56229558930403,3.93966383326434,4.60263868638889,0.100055,1.29,1.2561275,1.29,1.2319179
2501,7,0.995,0.15,2,3,2.5758293035489,0.01,2.572,3.0321669,1.67810896887856,3.92176764927991,4.55957339325878,25.2650766,1.284,12.3058763,1.283,12.2768746
2502,7,0.995,0.15,2,3,2.5758293035489,0.05,2.572,2.8983981,1.67810896887856,3.92176764927991,4.55957339325878,24.8664715,1.284,12.8111695,1.284,12.2373981
2503,8,0.995,0.15,2,1,2.5758293035489,0.01,2.6,0.5307535,1.45600831823984,2.76641503359879,3.10528476305868,0.0088327,1.4,0.1379352,1.3,0.1251063
2504,8,0.995,0.15,2,1,2.5758293035489,0.05,2.6,0.5371257,1.45600831823984,2.76641503359879,3.10528476305868,0.0083423,1.7,0.1500853,1.7,0.1559422
2505,8,0.995,0.15,2,2,2.5758293035489,0.01,2.58,0.4813697,1.55230879648943,2.72829440336647,3.17635827840437,0.0863887,1.29,1.2193261,1.29,1.2188016
2506,8,0.995,0.15,2,2,2.5758293035489,0.05,2.58,0.468189,1.55230879648943,2.72829440336647,3.17635827840437,0.0957278,1.69,1.4675221,1.67,1.4455741
2507,8,0.995,0.15,2,3,2.5758293035489,0.01,1.647,2.4521988,1.61438975030088,2.71650093845494,3.18877672157891,24.4383543,1.289,12.2826039,1.289,12.560337
2508,8,0.995,0.15,2,3,2.5758293035489,0.05,1.647,2.4727448,1.61438975030088,2.71650093845494,3.18877672157891,24.3547544,1.663,14.5669623,1.616,14.1444109
2509,9,0.995,0.15,2,1,2.5758293035489,0.01,2.5,0.5741381,1.53711939168141,2.86620171751046,4.00578636799229,0.0074183,1.3,0.1302287,1.3,0.12573
2510,9,0.995,0.15,2,1,2.5758293035489,0.05,2.5,0.5745113,1.53711939168141,2.86620171751046,4.00578636799229,0.0079353,1.4,0.1365108,1.3,0.1276874
2511,9,0.995,0.15,2,2,2.5758293035489,0.01,2.57,0.5429989,1.59211052334343,2.8640736894678,4.01390630077243,0.0983129,1.3,1.3049793,1.29,1.2080034
2512,9,0.995,0.15,2,2,2.5758293035489,0.05,2.57,0.5081651,1.59211052334343,2.8640736894678,4.01390630077243,0.1025603,1.34,1.257212,1.3,1.2282795
2513,9,0.995,0.15,2,3,2.5758293035489,0.01,1.615,2.4505108,1.63645035751034,2.66002934291763,2.96052222662125,24.3604041,1.287,12.4532319,1.279,12.020615
2514,9,0.995,0.15,2,3,2.5758293035489,0.05,1.615,2.4315559,1.63645035751034,2.66002934291763,2.96052222662125,24.5901878,1.336,12.3096745,1.293,12.0747612
2515,10,0.995,0.15,2,1,2.5758293035489,0.01,1.5,0.3723929,1.53305205513009,2.72366257467071,3.80307290487924,0.0085535,1.5,0.1677307,1.5,0.1477385
2516,10,0.995,0.15,2,1,2.5758293035489,0.05,1.5,0.3526425,1.53305205513009,2.72366257467071,3.80307290487924,0.0083713,1.6,0.1457282,1.6,0.1526007
2517,10,0.995,0.15,2,2,2.5758293035489,0.01,2.56,0.4690142,1.58864614462339,2.61179973424872,3.90570761870227,0.1016596,1.45,1.4635239,1.45,1.3711549
2518,10,0.995,0.15,2,2,2.5758293035489,0.05,2.56,0.4585478,1.58864614462339,2.61179973424872,3.90570761870227,0.1080761,1.53,1.4119448,1.53,1.3578971
2519,10,0.995,0.15,2,3,2.5758293035489,0.01,1.591,2.4869652,1.64043198632237,2.59568174440406,3.90903342002213,24.5556887,1.447,13.2678094,1.447,13.2181334
2520,10,0.995,0.15,2,3,2.5758293035489,0.05,1.591,2.5214051,1.64043198632237,2.59568174440406,3.90903342002213,24.8651378,1.528,13.8140653,1.528,13.6370205
2521,1,0.999,-0.15,0.5,1,3.09023230616781,0.01,1.3,0.2384821,NaN,NaN,NaN,0.0029851,3.4,0.2508097,3.4,0.2545773
2522,1,0.999,-0.15,0.5,1,3.09023230616781,0.05,1.3,0.237021,NaN,NaN,NaN,0.0027112,3.4,0.2512672,3.4,0.250001
2523,1,0.999,-0.15,0.5,2,3.09023230616781,0.01,1.34,0.361822,1.37123914742906,2.18204526908627,2.74912487281673,0.0867927,3.4,2.2563976,3.4,2.2109898
2524,1,0.999,-0.15,0.5,2,3.09023230616781,0.05,1.34,0.3441288,1.37123914742906,2.18204526908627,2.74912487281673,0.0885133,3.4,2.2108583,3.4,2.2217772
2525,1,0.999,-0.15,0.5,3,3.09023230616781,0.01,1.371,2.0180679,1.31860854454327,1.71332037006042,2.13731177730888,25.0846854,2.126,17.6160656,2.126,17.435935
2526,1,0.999,-0.15,0.5,3,3.09023230616781,0.05,1.371,1.9200826,1.31860854454327,1.71332037006042,2.13731177730888,24.4365798,2.126,17.8807966,2.126,17.4794512
2527,2,0.999,-0.15,0.5,1,3.09023230616781,0.01,1.1,0.10797,NaN,NaN,NaN,0.0026535,3.3,0.2492959,3.3,0.2412501
2528,2,0.999,-0.15,0.5,1,3.09023230616781,0.05,1.5,0.2470912,NaN,NaN,NaN,0.0027931,3.3,0.2416224,3.3,0.2487471
2529,2,0.999,-0.15,0.5,2,3.09023230616781,0.01,1.08,0.2464517,1.45063619669799,2.24496955618065,2.62300418413937,0.0802996,1.96,1.7901093,1.96,1.8038151
2530,2,0.999,-0.15,0.5,2,3.09023230616781,0.05,1.46,0.3759186,1.45063619669799,2.24496955618065,2.62300418413937,0.0871695,1.96,1.7835556,1.96,1.7458445
2531,2,0.999,-0.15,0.5,3,3.09023230616781,0.01,1.321,1.9456331,1.36723061823851,2.24404579389607,2.60791748728935,24.6574962,1.956,16.9303359,1.956,16.9400106
2532,2,0.999,-0.15,0.5,3,3.09023230616781,0.05,1.321,1.9271449,1.36723061823851,2.24404579389607,2.60791748728935,24.5430166,1.956,17.3049848,1.956,16.9176593
2533,3,0.999,-0.15,0.5,1,3.09023230616781,0.01,1,0.1088102,NaN,NaN,NaN,0.0035944,3.3,0.2593977,3.3,0.2584211
2534,3,0.999,-0.15,0.5,1,3.09023230616781,0.05,2.6,0.408569,NaN,NaN,NaN,0.0029299,3.3,0.2612819,3.3,0.2660147
2535,3,0.999,-0.15,0.5,2,3.09023230616781,0.01,1.04,0.239377,2.25423712002078,2.77382605637772,NaN,0.0799641,3.26,2.2384563,3.26,2.2578507
2536,3,0.999,-0.15,0.5,2,3.09023230616781,0.05,1.04,0.2401853,2.25423712002078,2.77382605637772,NaN,0.085938,3.26,2.242911,3.26,2.237236
2537,3,0.999,-0.15,0.5,3,3.09023230616781,0.01,1.335,1.9343766,1.36404525022156,2.07244436655345,2.77953816426631,24.972467,3.26,18.3399819,3.26,18.3213475
2538,3,0.999,-0.15,0.5,3,3.09023230616781,0.05,1.335,1.8952643,1.36404525022156,2.07244436655345,2.77953816426631,24.6238415,3.26,18.4240796,3.26,18.2231424
2539,4,0.999,-0.15,0.5,1,3.09023230616781,0.01,0.9,0.0938809,NaN,NaN,NaN,0.0035646,3.2,0.2436993,3.2,0.2486466
2540,4,0.999,-0.15,0.5,1,3.09023230616781,0.05,1.6,0.1930196,NaN,NaN,NaN,0.0027868,3.2,0.2537519,3.2,0.2463596
2541,4,0.999,-0.15,0.5,2,3.09023230616781,0.01,1.61,0.3984256,2.02890064884827,2.30743016574414,NaN,0.0734893,3.2,2.2486165,3.2,2.4695725
2542,4,0.999,-0.15,0.5,2,3.09023230616781,0.05,1.61,0.4426953,2.02890064884827,2.30743016574414,NaN,0.0946815,3.2,2.3737105,3.2,2.2479901
2543,4,0.999,-0.15,0.5,3,3.09023230616781,0.01,1.384,1.8876206,1.60619869026137,2.00204072835981,2.29598879583702,24.1569319,3.198,18.7100132,3.198,19.1151133
2544,4,0.999,-0.15,0.5,3,3.09023230616781,0.05,1.384,1.9022494,1.60619869026137,2.00204072835981,2.29598879583702,23.8475691,3.198,18.693007,3.198,18.9504123
2545,5,0.999,-0.15,0.5,1,3.09023230616781,0.01,0.9,0.1089672,1.57763731185451,NaN,NaN,0.0047042,3.3,0.2448809,3.3,0.2752018
2546,5,0.999,-0.15,0.5,1,3.09023230616781,0.05,1.4,0.3059278,1.57763731185451,NaN,NaN,0.0047548,3.3,0.2416946,3.3,0.2835499
2547,5,0.999,-0.15,0.5,2,3.09023230616781,0.01,0.96,0.2694745,1.53701145866705,NaN,NaN,0.0891967,2.14,1.8907796,2.14,1.8458318
2548,5,0.999,-0.15,0.5,2,3.09023230616781,0.05,1.47,0.4097976,1.53701145866705,NaN,NaN,0.0821674,2.14,1.8514104,2.14,1.8543236
2549,5,0.999,-0.15,0.5,3,3.09023230616781,0.01,1.414,2.0649939,1.45084586489293,1.85346803684092,2.17797777571433,25.4943642,2.126,17.1175948,2.126,17.4016108
2550,5,0.999,-0.15,0.5,3,3.09023230616781,0.05,1.414,2.0613187,1.45084586489293,1.85346803684092,2.17797777571433,25.449733,2.126,17.159482,2.126,17.4534132
2551,6,0.999,-0.15,0.5,1,3.09023230616781,0.01,0.9,0.0905233,1.68328712435999,NaN,NaN,0.0053797,3.3,0.2578558,3.3,0.2639751
2552,6,0.999,-0.15,0.5,1,3.09023230616781,0.05,1.6,0.3157202,1.68328712435999,NaN,NaN,0.0046857,3.3,0.2697696,3.3,0.2651295
2553,6,0.999,-0.15,0.5,2,3.09023230616781,0.01,0.86,0.2402002,1.5513805817741,2.73342127831679,NaN,0.1014828,3.27,2.2676846,3.27,2.2366979
2554,6,0.999,-0.15,0.5,2,3.09023230616781,0.05,1.61,0.4243453,1.5513805817741,2.73342127831679,NaN,0.082713,3.27,2.2360623,3.27,2.2478436
2555,6,0.999,-0.15,0.5,3,3.09023230616781,0.01,0.867,1.2936018,1.52596736207707,1.94498687642049,2.71796149950298,24.070985,3.269,18.1891869,3.269,18.4810167
2556,6,0.999,-0.15,0.5,3,3.09023230616781,0.05,0.867,1.2798774,1.52596736207707,1.94498687642049,2.71796149950298,24.1945218,3.269,18.1415821,3.269,18.4865963
2557,7,0.999,-0.15,0.5,1,3.09023230616781,0.01,1.1,0.0895882,1.82033471965062,NaN,NaN,0.0047441,2.4,0.2090236,2.4,0.2066438
2558,7,0.999,-0.15,0.5,1,3.09023230616781,0.05,1.7,0.1984782,1.82033471965062,NaN,NaN,0.0047323,2.4,0.2064547,2.4,0.2035345
2559,7,0.999,-0.15,0.5,2,3.09023230616781,0.01,1.3,0.3794256,1.75863673536882,2.63238472028625,NaN,0.1050388,1.69,1.6852133,1.69,1.6378613
2560,7,0.999,-0.15,0.5,2,3.09023230616781,0.05,1.3,0.3672584,1.75863673536882,2.63238472028625,NaN,0.0847689,1.74,1.6371458,1.74,1.674549
2561,7,0.999,-0.15,0.5,3,3.09023230616781,0.01,1.203,1.9543063,1.74217139742099,2.63002079345193,NaN,24.5487199,1.659,15.8929343,1.659,16.1252062
2562,7,0.999,-0.15,0.5,3,3.09023230616781,0.05,1.203,1.9042342,1.74217139742099,2.63002079345193,NaN,24.1297916,1.659,16.0176471,1.659,16.0791122
2563,8,0.999,-0.15,0.5,1,3.09023230616781,0.01,1,0.107058,NaN,NaN,NaN,0.0029195,3.3,0.2488624,3.3,0.2496624
2564,8,0.999,-0.15,0.5,1,3.09023230616781,0.05,1.7,0.2427966,NaN,NaN,NaN,0.0026388,3.3,0.244369,3.3,0.2485926
2565,8,0.999,-0.15,0.5,2,3.09023230616781,0.01,1.03,0.2683024,1.73891402115332,2.33943044325459,NaN,0.0849257,2.13,1.9144201,2.13,1.8697419
2566,8,0.999,-0.15,0.5,2,3.09023230616781,0.05,1.62,0.3903024,1.73891402115332,2.33943044325459,NaN,0.0988018,2.13,1.9118488,2.13,1.9108565
2567,8,0.999,-0.15,0.5,3,3.09023230616781,0.01,0.977,1.3366501,1.68982804598805,2.23541688109071,NaN,24.5261191,2.077,17.7309519,2.077,17.987024
2568,8,0.999,-0.15,0.5,3,3.09023230616781,0.05,1.628,1.85113,1.68982804598805,2.23541688109071,NaN,24.2837443,2.077,17.7789632,2.077,18.132471
2569,9,0.999,-0.15,0.5,1,3.09023230616781,0.01,0.9,0.1012486,1.36036819972876,NaN,NaN,0.0049264,3.2,0.2445747,3.2,0.2753753
2570,9,0.999,-0.15,0.5,1,3.09023230616781,0.05,1.4,0.2351261,1.36036819972876,NaN,NaN,0.0050826,3.2,0.2431354,3.2,0.2417552
2571,9,0.999,-0.15,0.5,2,3.09023230616781,0.01,1.4,0.360452,1.35126386075079,NaN,NaN,0.086045,3.24,2.240909,3.24,2.2529464
2572,9,0.999,-0.15,0.5,2,3.09023230616781,0.05,1.4,0.3607571,1.35126386075079,NaN,NaN,0.0832395,3.24,2.2898902,3.24,2.2557071
2573,9,0.999,-0.15,0.5,3,3.09023230616781,0.01,0.886,1.2860479,1.35790228849479,NaN,NaN,24.2853025,3.241,18.4986701,3.241,18.8034848
2574,9,0.999,-0.15,0.5,3,3.09023230616781,0.05,1.373,1.8952069,1.35790228849479,NaN,NaN,24.4636637,3.241,18.510676,3.241,18.9087931
2575,10,0.999,-0.15,0.5,1,3.09023230616781,0.01,1.4,0.1908835,1.7699585849773,NaN,NaN,0.0047236,3.3,0.2645737,3.3,0.2558141
2576,10,0.999,-0.15,0.5,1,3.09023230616781,0.05,1.4,0.1932913,1.7699585849773,NaN,NaN,0.0050651,3.3,0.2503431,3.3,0.2508763
2577,10,0.999,-0.15,0.5,2,3.09023230616781,0.01,1.45,0.4054299,1.74896579151829,NaN,NaN,0.091939,3.31,2.2431807,3.31,2.2696392
2578,10,0.999,-0.15,0.5,2,3.09023230616781,0.05,1.45,0.3952585,1.74896579151829,NaN,NaN,0.0711172,3.31,2.2754828,3.31,2.4406045
2579,10,0.999,-0.15,0.5,3,3.09023230616781,0.01,1.441,2.1494776,1.72034939319989,NaN,NaN,24.7809943,3.311,18.7023469,3.311,18.8661203
2580,10,0.999,-0.15,0.5,3,3.09023230616781,0.05,1.441,2.1796461,1.72034939319989,NaN,NaN,24.9176325,3.311,18.7353388,3.311,19.0097155
2581,1,0.999,-0.15,1,1,3.09023230616781,0.01,1.4,0.2409024,NaN,NaN,NaN,0.0029237,1.7,0.1729648,1.7,0.168783
2582,1,0.999,-0.15,1,1,3.09023230616781,0.05,1.4,0.2355512,NaN,NaN,NaN,0.0026209,1.7,0.1653156,1.7,0.1585013
2583,1,0.999,-0.15,1,2,3.09023230616781,0.01,1.45,0.4729642,1.81934810366129,2.75063929020777,NaN,0.0826577,1.4,1.6165482,1.4,1.5469958
2584,1,0.999,-0.15,1,2,3.09023230616781,0.05,1.45,0.50824,1.81934810366129,2.75063929020777,NaN,0.0866439,1.4,1.5207566,1.4,1.4153602
2585,1,0.999,-0.15,1,3,3.09023230616781,0.01,1.421,1.9514377,1.75373453083624,2.40424467721973,2.74351472765006,24.0255186,1.377,14.0711317,1.377,14.0751062
2586,1,0.999,-0.15,1,3,3.09023230616781,0.05,1.421,1.9584977,1.75373453083624,2.40424467721973,2.74351472765006,24.0505758,1.377,13.9941992,1.377,14.1869811
2587,2,0.999,-0.15,1,1,3.09023230616781,0.01,2.1,0.4294852,NaN,NaN,NaN,0.0033087,1.8,0.1926174,1.8,0.2010584
2588,2,0.999,-0.15,1,1,3.09023230616781,0.05,2.1,0.4592405,NaN,NaN,NaN,0.0030485,1.8,0.1703162,1.8,0.1737152
2589,2,0.999,-0.15,1,2,3.09023230616781,0.01,1.57,0.4780268,2.50094447057736,2.68518453974436,NaN,0.1055779,1.5,1.4860226,1.5,1.4738891
2590,2,0.999,-0.15,1,2,3.09023230616781,0.05,1.57,0.4832001,2.50094447057736,2.68518453974436,NaN,0.0931403,1.5,1.4910801,1.5,1.4862176
2591,2,0.999,-0.15,1,3,3.09023230616781,0.01,1.571,1.8830445,1.20480039860017,2.09796342039845,2.46593674760042,25.1272329,1.493,14.4744934,1.493,14.6283319
2592,2,0.999,-0.15,1,3,3.09023230616781,0.05,1.571,1.9434398,1.20480039860017,2.09796342039845,2.46593674760042,25.4970156,1.494,14.5211753,1.494,14.6760153
2593,3,0.999,-0.15,1,1,3.09023230616781,0.01,1.3,0.1963736,1.79438254696718,NaN,NaN,0.0042332,2.3,0.2182825,2.3,0.1978535
2594,3,0.999,-0.15,1,1,3.09023230616781,0.05,1.3,0.2077899,1.79438254696718,NaN,NaN,0.00493,2.3,0.1993409,2.3,0.1992957
2595,3,0.999,-0.15,1,2,3.09023230616781,0.01,1.39,0.3665647,1.46569881315437,1.79993923725083,NaN,0.0803401,1.85,1.7292331,1.85,1.7654991
2596,3,0.999,-0.15,1,2,3.09023230616781,0.05,1.39,0.3535209,1.46569881315437,1.79993923725083,NaN,0.0777317,1.85,1.912268,1.85,1.8632722
2597,3,0.999,-0.15,1,3,3.09023230616781,0.01,1.398,2.0542217,1.4427152765392,1.83607307094577,NaN,24.9309079,1.824,16.7553915,1.824,16.695674
2598,3,0.999,-0.15,1,3,3.09023230616781,0.05,1.398,1.9932429,1.4427152765392,1.83607307094577,NaN,25.3459551,1.824,16.7778219,1.824,16.6936078
2599,4,0.999,-0.15,1,1,3.09023230616781,0.01,1.9,0.2948055,NaN,NaN,NaN,0.00283,1.8,0.1828941,1.8,0.1770836
2600,4,0.999,-0.15,1,1,3.09023230616781,0.05,2.5,0.538791,NaN,NaN,NaN,0.0028655,1.8,0.1820302,1.8,0.1782601
2601,4,0.999,-0.15,1,2,3.09023230616781,0.01,1.98,0.7287959,NaN,NaN,NaN,0.0870807,1.55,1.5373988,1.55,1.5441478
2602,4,0.999,-0.15,1,2,3.09023230616781,0.05,1.98,0.7019653,NaN,NaN,NaN,0.087718,1.55,1.5548649,1.55,1.6733509
2603,4,0.999,-0.15,1,3,3.09023230616781,0.01,1.376,2.0605747,NaN,NaN,NaN,25.4827722,1.488,14.7853648,1.488,14.6843279
2604,4,0.999,-0.15,1,3,3.09023230616781,0.05,1.376,2.0306724,NaN,NaN,NaN,25.745487,1.488,15.2832643,1.488,14.7195967
2605,5,0.999,-0.15,1,1,3.09023230616781,0.01,2.3,0.3425149,NaN,NaN,NaN,0.0029998,1.8,0.1749876,1.8,0.1751556
2606,5,0.999,-0.15,1,1,3.09023230616781,0.05,2.3,0.3510454,NaN,NaN,NaN,0.002854,1.8,0.2029927,1.8,0.1929608
2607,5,0.999,-0.15,1,2,3.09023230616781,0.01,1.63,0.4783345,2.5903785952459,NaN,NaN,0.0756685,1.6,1.5773112,1.6,1.55048
2608,5,0.999,-0.15,1,2,3.09023230616781,0.05,1.97,0.5986629,2.5903785952459,NaN,NaN,0.0901204,1.6,1.5416278,1.6,1.5693077
2609,5,0.999,-0.15,1,3,3.09023230616781,0.01,1.387,2.0296189,0.992163729259461,2.0133960888611,2.59750102073472,25.3603536,1.592,15.3329571,1.592,15.1079559
2610,5,0.999,-0.15,1,3,3.09023230616781,0.05,1.387,2.0209131,0.992163729259461,2.0133960888611,2.59750102073472,25.3567997,1.597,15.69017,1.597,15.0490592
2611,6,0.999,-0.15,1,1,3.09023230616781,0.01,1.5,0.2069898,1.68235257885485,NaN,NaN,0.0051932,2.3,0.1950409,2.3,0.1953047
2612,6,0.999,-0.15,1,1,3.09023230616781,0.05,1.5,0.1954266,1.68235257885485,NaN,NaN,0.0050167,2.3,0.1989418,2.3,0.2015046
2613,6,0.999,-0.15,1,2,3.09023230616781,0.01,0.94,0.2463826,1.57288184147176,2.55931466304553,NaN,0.0856364,1.92,1.726308,1.92,1.7417741
2614,6,0.999,-0.15,1,2,3.09023230616781,0.05,0.94,0.2533428,1.57288184147176,2.55931466304553,NaN,0.0832751,1.92,1.7287355,1.92,1.7206264
2615,6,0.999,-0.15,1,3,3.09023230616781,0.01,0.867,1.2991396,1.5479777686025,2.17973056061,2.57687315479831,24.1246563,1.906,16.7849967,1.906,16.2917109
2616,6,0.999,-0.15,1,3,3.09023230616781,0.05,0.867,1.2983766,1.5479777686025,2.17973056061,2.57687315479831,24.497532,1.906,16.7081583,1.906,16.4648602
2617,7,0.999,-0.15,1,1,3.09023230616781,0.01,1.7,0.1806135,NaN,NaN,NaN,0.0027967,1.9,0.18075,2.4,0.2090855
2618,7,0.999,-0.15,1,1,3.09023230616781,0.05,1.7,0.1777933,NaN,NaN,NaN,0.0029292,2.4,0.208022,2.4,0.2108108
2619,7,0.999,-0.15,1,2,3.09023230616781,0.01,1.43,0.4855277,2.62352493375409,NaN,NaN,0.1148005,1.66,1.579677,1.66,1.5847578
2620,7,0.999,-0.15,1,2,3.09023230616781,0.05,1.85,0.7397402,2.62352493375409,NaN,NaN,0.0932984,1.7,1.5927972,1.66,1.5693213
2621,7,0.999,-0.15,1,3,3.09023230616781,0.01,1.427,1.9659527,1.36401882847139,1.74402668527934,2.63001275957069,25.3505343,1.638,15.7131774,1.638,15.2419844
2622,7,0.999,-0.15,1,3,3.09023230616781,0.05,1.427,1.9535439,1.36401882847139,1.74402668527934,2.63001275957069,25.1517305,1.698,15.5129761,1.656,15.7162621
2623,8,0.999,-0.15,1,1,3.09023230616781,0.01,1.7,0.2383471,NaN,NaN,NaN,0.0040668,3.3,0.2365028,3.3,0.2401771
2624,8,0.999,-0.15,1,1,3.09023230616781,0.05,1.7,0.1928983,NaN,NaN,NaN,0.002754,3.3,0.2444907,3.3,0.253986
2625,8,0.999,-0.15,1,2,3.09023230616781,0.01,1.71,0.4812933,1.99425882094984,2.71170136044756,NaN,0.0743952,1.81,1.7092618,1.81,1.7169712
2626,8,0.999,-0.15,1,2,3.09023230616781,0.05,1.71,0.4669113,1.99425882094984,2.71170136044756,NaN,0.0757202,1.81,1.7121153,1.81,1.7223785
2627,8,0.999,-0.15,1,3,3.09023230616781,0.01,1.502,1.9750402,1.88502089023678,2.26098963218104,2.72999823023623,24.7409825,1.803,16.3934589,1.803,16.6750943
2628,8,0.999,-0.15,1,3,3.09023230616781,0.05,1.502,1.9605678,1.88502089023678,2.26098963218104,2.72999823023623,24.4254125,1.803,16.4059187,1.803,16.9875576
2629,9,0.999,-0.15,1,1,3.09023230616781,0.01,1.1,0.102887,NaN,NaN,NaN,0.0028647,2.1,0.1938632,2.1,0.1913485
2630,9,0.999,-0.15,1,1,3.09023230616781,0.05,1.1,0.1010385,NaN,NaN,NaN,0.0027462,2.1,0.1942404,2.1,0.1944894
2631,9,0.999,-0.15,1,2,3.09023230616781,0.01,1.24,0.3857188,1.43706215071649,2.61582349551255,NaN,0.0838589,1.95,1.746978,1.95,1.7408653
2632,9,0.999,-0.15,1,2,3.09023230616781,0.05,1.24,0.390018,1.43706215071649,2.61582349551255,NaN,0.0921559,1.95,1.7354883,1.95,1.7441843
2633,9,0.999,-0.15,1,3,3.09023230616781,0.01,1.247,1.9935555,1.36022651400851,2.63251959998576,NaN,24.6560203,1.766,16.1175013,1.766,16.3387213
2634,9,0.999,-0.15,1,3,3.09023230616781,0.05,1.247,2.0069115,1.36022651400851,2.63251959998576,NaN,25.2052499,1.766,16.3696179,1.766,16.5869143
2635,10,0.999,-0.15,1,1,3.09023230616781,0.01,1.3,0.2605202,1.38140745242084,NaN,NaN,0.0050571,2.2,0.1959604,2.2,0.1957169
2636,10,0.999,-0.15,1,1,3.09023230616781,0.05,1.3,0.2664914,1.38140745242084,NaN,NaN,0.0048201,2.2,0.1941008,2.2,0.1896245
2637,10,0.999,-0.15,1,2,3.09023230616781,0.01,0.91,0.2447365,1.34555220435907,2.74240167752847,NaN,0.0974173,1.81,1.6259655,1.81,1.6687995
2638,10,0.999,-0.15,1,2,3.09023230616781,0.05,1.45,0.3753452,1.34555220435907,2.74240167752847,NaN,0.0839931,1.81,1.6427846,1.81,1.6515806
2639,10,0.999,-0.15,1,3,3.09023230616781,0.01,0.941,1.3312094,1.34253571501064,1.95147394055975,2.54151817406786,25.4153298,1.628,15.4737023,1.628,15.5503695
2640,10,0.999,-0.15,1,3,3.09023230616781,0.05,1.458,1.8767397,1.34253571501064,1.95147394055975,2.54151817406786,25.0340227,1.628,15.9160316,1.628,15.1248332
2641,1,0.999,-0.15,2,1,3.09023230616781,0.01,1.7,0.1927777,NaN,NaN,NaN,0.0028251,1.5,0.1572464,1.5,0.1518578
2642,1,0.999,-0.15,2,1,3.09023230616781,0.05,2.1,0.2928459,NaN,NaN,NaN,0.0032546,1.5,0.1641827,1.5,0.1533288
2643,1,0.999,-0.15,2,2,3.09023230616781,0.01,1.31,0.563315,2.63725110716494,NaN,NaN,0.0735946,1.26,1.4748047,1.26,1.4630976
2644,1,0.999,-0.15,2,2,3.09023230616781,0.05,1.31,0.5213231,2.63725110716494,NaN,NaN,0.0894211,1.3,1.4234548,1.3,1.3250635
2645,1,0.999,-0.15,2,3,3.09023230616781,0.01,1.315,2.0771232,1.48268082801645,2.15269880105916,2.62416895919293,25.3821704,1.238,13.1404419,1.238,12.9947555
2646,1,0.999,-0.15,2,3,3.09023230616781,0.05,1.315,2.068027,1.48268082801645,2.15269880105916,2.62416895919293,26.211639,1.25,13.0426057,1.25,13.3562963
2647,2,0.999,-0.15,2,1,3.09023230616781,0.01,2.1,0.3701892,2.27532569880486,NaN,NaN,0.0047138,1.5,0.1535733,1.5,0.1480716
2648,2,0.999,-0.15,2,1,3.09023230616781,0.05,2.1,0.3422898,2.27532569880486,NaN,NaN,0.0047599,1.5,0.1963629,1.5,0.1671728
2649,2,0.999,-0.15,2,2,3.09023230616781,0.01,1.84,0.5948344,1.37529754645015,2.30403487965821,NaN,0.0816717,1.21,1.2745297,1.21,1.2612945
2650,2,0.999,-0.15,2,2,3.09023230616781,0.05,1.84,0.5766531,1.37529754645015,2.30403487965821,NaN,0.0824431,1.22,1.2664372,1.22,1.2711662
2651,2,0.999,-0.15,2,3,3.09023230616781,0.01,1.328,2.0365221,1.32509040365924,1.74563917088751,2.32705956822029,25.225404,1.221,12.5827765,1.221,12.6180848
2652,2,0.999,-0.15,2,3,3.09023230616781,0.05,1.328,2.0582833,1.32509040365924,1.74563917088751,2.32705956822029,25.4074674,1.229,12.6739404,1.229,12.6749193
2653,3,0.999,-0.15,2,1,3.09023230616781,0.01,1.9,0.3147152,NaN,NaN,NaN,0.0028493,1.5,0.148652,1.5,0.1503219
2654,3,0.999,-0.15,2,1,3.09023230616781,0.05,2.3,0.4194524,NaN,NaN,NaN,0.0027662,1.5,0.1501353,1.5,0.1487862
2655,3,0.999,-0.15,2,2,3.09023230616781,0.01,1.76,0.7182102,2.51123877425508,NaN,NaN,0.080485,1.15,1.2033334,1.15,1.212864
2656,3,0.999,-0.15,2,2,3.09023230616781,0.05,1.76,0.7087251,2.51123877425508,NaN,NaN,0.0826675,1.2,1.2407989,1.2,1.242007
2657,3,0.999,-0.15,2,3,3.09023230616781,0.01,1.333,1.9970109,1.34360159776444,2.51959515976414,NaN,24.6860871,1.151,12.5263388,1.151,12.0354597
2658,3,0.999,-0.15,2,3,3.09023230616781,0.05,1.333,1.9922583,1.34360159776444,2.51959515976414,NaN,24.8330693,1.19,12.2583947,1.19,12.7329441
2659,4,0.999,-0.15,2,1,3.09023230616781,0.01,2.2,0.3546818,2.36997843346679,NaN,NaN,0.0052536,1.6,0.1606311,1.6,0.1576972
2660,4,0.999,-0.15,2,1,3.09023230616781,0.05,2.2,0.34219,2.36997843346679,NaN,NaN,0.0049014,1.6,0.1571147,1.6,0.1557927
2661,4,0.999,-0.15,2,2,3.09023230616781,0.01,1.8,0.7061837,2.44632288876728,NaN,NaN,0.0700056,1.31,1.3510543,1.31,1.3803423
2662,4,0.999,-0.15,2,2,3.09023230616781,0.05,1.8,0.6945714,2.44632288876728,NaN,NaN,0.082658,1.31,1.3507235,1.31,1.3415344
2663,4,0.999,-0.15,2,3,3.09023230616781,0.01,1.419,1.8771852,1.71658204916097,2.4823838942929,NaN,23.9964739,1.291,13.4336281,1.291,13.7173201
2664,4,0.999,-0.15,2,3,3.09023230616781,0.05,1.419,1.8653515,1.71658204916097,2.4823838942929,NaN,23.8632137,1.291,13.2457473,1.291,13.4949137
2665,5,0.999,-0.15,2,1,3.09023230616781,0.01,1.9,0.3713606,2.04431942673865,NaN,NaN,0.0058426,1.6,0.1586067,1.4,0.143955
2666,5,0.999,-0.15,2,1,3.09023230616781,0.05,1.9,0.346742,2.04431942673865,NaN,NaN,0.0055157,1.6,0.1552455,1.6,0.1664631
2667,5,0.999,-0.15,2,2,3.09023230616781,0.01,1.91,0.6876722,2.09426192636449,NaN,NaN,0.0895718,1.19,1.2425611,1.19,1.2718713
2668,5,0.999,-0.15,2,2,3.09023230616781,0.05,1.91,0.7134091,2.09426192636449,NaN,NaN,0.088948,1.19,1.2321403,1.22,1.2572412
2669,5,0.999,-0.15,2,3,3.09023230616781,0.01,1.271,2.2052527,2.13385514790946,NaN,NaN,25.4598637,1.192,12.3235446,1.192,12.764537
2670,5,0.999,-0.15,2,3,3.09023230616781,0.05,1.271,2.0468922,2.13385514790946,NaN,NaN,25.10054,1.21,12.544035,1.21,12.5781865
2671,6,0.999,-0.15,2,1,3.09023230616781,0.01,1.7,0.1993343,2.18428435387539,NaN,NaN,0.0058274,1.6,0.1559212,1.6,0.1658218
2672,6,0.999,-0.15,2,1,3.09023230616781,0.05,2.1,0.3032674,2.18428435387539,NaN,NaN,0.0048182,1.6,0.1581955,1.6,0.1571292
2673,6,0.999,-0.15,2,2,3.09023230616781,0.01,2.19,0.7012041,2.20488228009533,NaN,NaN,0.0745975,1.27,1.3129915,1.26,1.3185622
2674,6,0.999,-0.15,2,2,3.09023230616781,0.05,2.19,0.7075727,2.20488228009533,NaN,NaN,0.0729299,1.27,1.334687,1.27,1.3549381
2675,6,0.999,-0.15,2,3,3.09023230616781,0.01,1.311,2.1070229,1.3919799659488,2.19225266931922,NaN,25.815972,1.266,13.148034,1.264,13.0972452
2676,6,0.999,-0.15,2,3,3.09023230616781,0.05,1.311,1.980496,1.3919799659488,2.19225266931922,NaN,25.2485931,1.269,13.5243194,1.266,13.2577152
2677,7,0.999,-0.15,2,1,3.09023230616781,0.01,1.7,0.2109594,2.1645179182037,NaN,NaN,0.0046846,1.7,0.167255,1.7,0.1674231
2678,7,0.999,-0.15,2,1,3.09023230616781,0.05,2.2,0.353682,2.1645179182037,NaN,NaN,0.005657,1.7,0.1656054,1.7,0.1652861
2679,7,0.999,-0.15,2,2,3.09023230616781,0.01,1.73,0.5000402,2.20199739411538,NaN,NaN,0.0728141,1.38,1.3752954,1.38,1.3844068
2680,7,0.999,-0.15,2,2,3.09023230616781,0.05,2.26,0.5741398,2.20199739411538,NaN,NaN,0.0847529,1.38,1.4066651,1.38,1.397337
2681,7,0.999,-0.15,2,3,3.09023230616781,0.01,1.331,1.920807,1.28539209332151,1.7451701970448,2.20958287735428,23.5846918,1.327,13.995963,1.327,13.7366844
2682,7,0.999,-0.15,2,3,3.09023230616781,0.05,1.331,1.9382908,1.28539209332151,1.7451701970448,2.20958287735428,24.0203758,1.327,13.8177705,1.327,13.9276991
2683,8,0.999,-0.15,2,1,3.09023230616781,0.01,1.6,0.2336537,2.04557567359737,NaN,NaN,0.0054197,1.6,0.1513362,1.3,0.1299252
2684,8,0.999,-0.15,2,1,3.09023230616781,0.05,2.1,0.3635407,2.04557567359737,NaN,NaN,0.0059032,1.6,0.1518169,1.6,0.1495021
2685,8,0.999,-0.15,2,2,3.09023230616781,0.01,1.79,0.5970439,2.15502998296678,NaN,NaN,0.0885475,1.1,1.1402244,1.1,1.1429522
2686,8,0.999,-0.15,2,2,3.09023230616781,0.05,1.79,0.5881924,2.15502998296678,NaN,NaN,0.0823501,1.1,1.1643438,1.1,1.1515081
2687,8,0.999,-0.15,2,3,3.09023230616781,0.01,1.644,2.4985474,2.18278778655427,NaN,NaN,24.5728127,1.096,11.6780563,1.095,11.3532601
2688,8,0.999,-0.15,2,3,3.09023230616781,0.05,1.644,2.4815138,2.18278778655427,NaN,NaN,25.001488,1.101,11.3384959,1.101,11.3264348
2689,9,0.999,-0.15,2,1,3.09023230616781,0.01,1.7,0.2205429,NaN,NaN,NaN,0.002767,1.5,0.1884342,1.5,0.158589
2690,9,0.999,-0.15,2,1,3.09023230616781,0.05,2.2,0.3191525,NaN,NaN,NaN,0.0027222,1.6,0.1610161,1.6,0.1558695
2691,9,0.999,-0.15,2,2,3.09023230616781,0.01,1.94,0.7212504,2.35767838119752,NaN,NaN,0.1073117,1.19,1.3257457,1.19,1.2665014
2692,9,0.999,-0.15,2,2,3.09023230616781,0.05,1.94,0.6867781,2.35767838119752,NaN,NaN,0.1096425,1.34,1.3239956,1.36,1.3487376
2693,9,0.999,-0.15,2,3,3.09023230616781,0.01,1.415,1.8395427,1.36354864391065,2.36527452147814,NaN,23.5955718,1.165,12.2928324,1.165,12.2782355
2694,9,0.999,-0.15,2,3,3.09023230616781,0.05,1.415,1.8655705,1.36354864391065,2.36527452147814,NaN,23.9820941,1.235,13.1399035,1.338,13.3870443
2695,10,0.999,-0.15,2,1,3.09023230616781,0.01,1.9,0.3142447,NaN,NaN,NaN,0.0028965,1.5,0.173008,1.5,0.1589473
2696,10,0.999,-0.15,2,1,3.09023230616781,0.05,1.9,0.2953792,NaN,NaN,NaN,0.0034112,1.5,0.1553703,1.5,0.1537364
2697,10,0.999,-0.15,2,2,3.09023230616781,0.01,1.97,0.7143333,2.61729629152,NaN,NaN,0.0892319,1.21,1.2763665,1.2,1.2696555
2698,10,0.999,-0.15,2,2,3.09023230616781,0.05,1.97,0.7024136,2.61729629152,NaN,NaN,0.1031951,1.21,1.2928087,1.21,1.2841234
2699,10,0.999,-0.15,2,3,3.09023230616781,0.01,1.31,1.9849138,1.27608315369861,2.22488969328171,2.65722138560035,24.4968241,1.209,13.0823201,1.2,12.7072301
2700,10,0.999,-0.15,2,3,3.09023230616781,0.05,1.31,1.990557,1.27608315369861,2.22488969328171,2.65722138560035,23.7405942,1.209,12.9494672,1.209,13.0777249
2701,1,0.999,-0.1,0.5,1,3.09023230616781,0.01,1,0.0875242,1.29389880860545,NaN,NaN,0.005945,3.3,0.2566156,3.3,0.2630524
2702,1,0.999,-0.1,0.5,1,3.09023230616781,0.05,2.6,0.2888432,1.29389880860545,NaN,NaN,0.0051914,3.3,0.2560873,3.3,0.2617209
2703,1,0.999,-0.1,0.5,2,3.09023230616781,0.01,1.56,0.4753121,1.22991572301462,2.10198230506353,NaN,0.0913197,3.26,2.2511,3.26,2.2559366
2704,1,0.999,-0.1,0.5,2,3.09023230616781,0.05,1.56,0.4864354,1.22991572301462,2.10198230506353,NaN,0.0823997,3.26,2.2706887,3.26,2.2317471
2705,1,0.999,-0.1,0.5,3,3.09023230616781,0.01,0.826,1.3704194,1.23656832297144,2.10354934978472,NaN,26.2019114,3.256,18.4913361,3.256,18.6758954
2706,1,0.999,-0.1,0.5,3,3.09023230616781,0.05,1.329,2.0133165,1.23656832297144,2.10354934978472,NaN,25.9084288,3.256,18.653053,3.256,18.725111
2707,2,0.999,-0.1,0.5,1,3.09023230616781,0.01,1.7,0.2470763,2.20099106410009,NaN,NaN,0.0044873,3.7,0.2677037,3.7,0.2691892
2708,2,0.999,-0.1,0.5,1,3.09023230616781,0.05,1.7,0.2383195,2.20099106410009,NaN,NaN,0.0045229,3.7,0.2654204,3.7,0.2744249
2709,2,0.999,-0.1,0.5,2,3.09023230616781,0.01,1.41,0.3574428,1.90388607174906,2.56959119192305,2.88495320805094,0.0811857,1.98,1.7665671,1.98,1.7605694
2710,2,0.999,-0.1,0.5,2,3.09023230616781,0.05,1.41,0.3635147,1.90388607174906,2.56959119192305,2.88495320805094,0.0918072,1.98,1.7417126,1.98,1.7555857
2711,2,0.999,-0.1,0.5,3,3.09023230616781,0.01,0.979,1.2935688,1.38863610335336,1.72257817239347,2.23446853271204,24.7775807,1.967,16.6928027,1.967,16.6560007
2712,2,0.999,-0.1,0.5,3,3.09023230616781,0.05,1.416,1.8892023,1.38863610335336,1.72257817239347,2.23446853271204,24.6900425,1.967,16.7736707,1.967,16.93642
2713,3,0.999,-0.1,0.5,1,3.09023230616781,0.01,1.6,0.2076164,2.22294859622888,NaN,NaN,0.0048686,3.6,0.2647174,3.6,0.2587977
2714,3,0.999,-0.1,0.5,1,3.09023230616781,0.05,1.6,0.2084988,2.22294859622888,NaN,NaN,0.004659,3.6,0.2637035,3.6,0.2705323
2715,3,0.999,-0.1,0.5,2,3.09023230616781,0.01,1.51,0.4833358,1.65473645760574,2.23303191084755,NaN,0.0799039,3.59,2.2375389,3.59,2.247208
2716,3,0.999,-0.1,0.5,2,3.09023230616781,0.05,1.51,0.5812104,1.65473645760574,2.23303191084755,NaN,0.090119,3.59,2.2835949,3.59,2.2599582
2717,3,0.999,-0.1,0.5,3,3.09023230616781,0.01,1.463,2.0382352,1.58869645592243,2.19896988895859,2.55417999607034,25.2223124,3.593,18.6201011,3.593,18.2126977
2718,3,0.999,-0.1,0.5,3,3.09023230616781,0.05,1.463,2.011767,1.58869645592243,2.19896988895859,2.55417999607034,25.2925468,3.593,18.5041123,3.593,18.5228442
2719,4,0.999,-0.1,0.5,1,3.09023230616781,0.01,1.5,0.2093297,1.87413126898558,NaN,NaN,0.0055342,3.4,0.2528614,3.4,0.2497916
2720,4,0.999,-0.1,0.5,1,3.09023230616781,0.05,1.5,0.2010146,1.87413126898558,NaN,NaN,0.0051555,3.4,0.251003,3.4,0.2522916
2721,4,0.999,-0.1,0.5,2,3.09023230616781,0.01,1.49,0.384419,1.89188112036941,2.41857732095196,NaN,0.0974393,3.4,2.2281811,3.4,2.2227493
2722,4,0.999,-0.1,0.5,2,3.09023230616781,0.05,1.49,0.3600693,1.89188112036941,2.41857732095196,NaN,0.0875798,3.4,2.2140356,3.4,2.2123421
2723,4,0.999,-0.1,0.5,3,3.09023230616781,0.01,1.493,1.8438688,1.49410375186743,1.86633211339162,2.4064330811152,24.0134341,3.397,18.6222854,3.397,18.109546
2724,4,0.999,-0.1,0.5,3,3.09023230616781,0.05,1.493,1.8463458,1.49410375186743,1.86633211339162,2.4064330811152,23.6201681,3.397,18.8549455,3.397,18.1896497
2725,5,0.999,-0.1,0.5,1,3.09023230616781,0.01,0.9,0.0960495,1.62097860702412,NaN,NaN,0.0046023,3.1,0.2485675,3.1,0.2444052
2726,5,0.999,-0.1,0.5,1,3.09023230616781,0.05,0.9,0.099351,1.62097860702412,NaN,NaN,0.0045665,3.1,0.2479708,3.1,0.2455806
2727,5,0.999,-0.1,0.5,2,3.09023230616781,0.01,1,0.2468807,1.61037527824356,NaN,NaN,0.079225,3.12,2.2194665,3.12,2.2254375
2728,5,0.999,-0.1,0.5,2,3.09023230616781,0.05,1,0.2511877,1.61037527824356,NaN,NaN,0.0813442,3.12,2.2732768,3.12,2.2399244
2729,5,0.999,-0.1,0.5,3,3.09023230616781,0.01,0.895,1.306874,1.19787507056285,1.32065568373033,1.60075977120294,24.8941001,3.122,18.7291333,3.122,18.3668975
2730,5,0.999,-0.1,0.5,3,3.09023230616781,0.05,0.895,1.3065991,1.19787507056285,1.32065568373033,1.60075977120294,24.7941272,3.122,18.9619195,3.122,18.5184597
2731,6,0.999,-0.1,0.5,1,3.09023230616781,0.01,0.9,0.0888806,1.80134329727372,NaN,NaN,0.0042696,3.1,0.2515184,3.1,0.2471687
2732,6,0.999,-0.1,0.5,1,3.09023230616781,0.05,0.9,0.0880575,1.80134329727372,NaN,NaN,0.0048467,3.1,0.2473538,3.1,0.2559094
2733,6,0.999,-0.1,0.5,2,3.09023230616781,0.01,0.86,0.2597432,1.55694622065671,1.8083164074614,NaN,0.0755546,3.07,2.3730611,3.07,2.3115639
2734,6,0.999,-0.1,0.5,2,3.09023230616781,0.05,0.86,0.2425092,1.55694622065671,1.8083164074614,NaN,0.0896345,3.07,2.3607308,3.07,2.3371818
2735,6,0.999,-0.1,0.5,3,3.09023230616781,0.01,0.864,1.3260747,1.52765226602698,1.83064626600526,2.42402001987562,25.5230818,3.068,19.8013375,3.068,19.6771056
2736,6,0.999,-0.1,0.5,3,3.09023230616781,0.05,0.864,1.3282686,1.52765226602698,1.83064626600526,2.42402001987562,25.77955,3.068,19.8921584,3.068,19.7397807
2737,7,0.999,-0.1,0.5,1,3.09023230616781,0.01,1.6,0.1796054,NaN,NaN,NaN,0.0028173,3.2,0.2510008,3.2,0.2535641
2738,7,0.999,-0.1,0.5,1,3.09023230616781,0.05,1.6,0.1850432,NaN,NaN,NaN,0.0027088,3.2,0.2513789,3.2,0.2705418
2739,7,0.999,-0.1,0.5,2,3.09023230616781,0.01,1.62,0.4663575,2.20239186640112,NaN,NaN,0.0899847,2.05,1.8979676,2.05,2.0181533
2740,7,0.999,-0.1,0.5,2,3.09023230616781,0.05,1.62,0.5313519,2.20239186640112,NaN,NaN,0.0946317,2.05,1.949671,2.05,1.8658629
2741,7,0.999,-0.1,0.5,3,3.09023230616781,0.01,1.623,1.8761498,1.59162241077829,1.77596272670857,2.17677201345659,24.7422222,2.037,17.8603169,2.037,18.2135326
2742,7,0.999,-0.1,0.5,3,3.09023230616781,0.05,1.623,1.9366011,1.59162241077829,1.77596272670857,2.17677201345659,24.8927225,2.037,17.8409331,2.037,17.9392056
2743,8,0.999,-0.1,0.5,1,3.09023230616781,0.01,1.8,0.1863398,NaN,NaN,NaN,0.0036311,3.4,0.2589645,3.4,0.3008328
2744,8,0.999,-0.1,0.5,1,3.09023230616781,0.05,1.8,0.2262715,NaN,NaN,NaN,0.0029354,3.4,0.2642495,3.4,0.2870113
2745,8,0.999,-0.1,0.5,2,3.09023230616781,0.01,1.37,0.5034239,1.9353403433607,2.70544292945498,NaN,0.0853349,3.39,2.4572355,3.39,2.2714308
2746,8,0.999,-0.1,0.5,2,3.09023230616781,0.05,1.37,0.4724201,1.9353403433607,2.70544292945498,NaN,0.0893783,3.39,2.275611,3.39,2.2628646
2747,8,0.999,-0.1,0.5,3,3.09023230616781,0.01,1.377,2.007244,1.85048147946253,2.37076479802832,2.70277396365083,25.7752643,3.386,18.4491816,3.386,18.5947672
2748,8,0.999,-0.1,0.5,3,3.09023230616781,0.05,1.377,2.0336847,1.85048147946253,2.37076479802832,2.70277396365083,26.0191634,3.386,18.3610626,3.386,18.678097
2749,9,0.999,-0.1,0.5,1,3.09023230616781,0.01,1.4,0.2928401,2.18232033662598,NaN,NaN,0.0047472,3.4,0.2487784,3.4,0.2477638
2750,9,0.999,-0.1,0.5,1,3.09023230616781,0.05,1.4,0.3173155,2.18232033662598,NaN,NaN,0.0049214,3.4,0.2546933,3.4,0.2569268
2751,9,0.999,-0.1,0.5,2,3.09023230616781,0.01,1.5,0.3686084,1.36695202053065,2.13376324983933,2.69681889716276,0.0836805,3.43,2.2417687,3.43,2.1987717
2752,9,0.999,-0.1,0.5,2,3.09023230616781,0.05,1.5,0.3817199,1.36695202053065,2.13376324983933,2.69681889716276,0.0721716,3.43,2.2160825,3.43,2.4903189
2753,9,0.999,-0.1,0.5,3,3.09023230616781,0.01,1.341,2.1313187,1.32967423808791,2.11444895149168,2.68604691837794,24.5156524,2.027,17.1693071,2.027,17.190179
2754,9,0.999,-0.1,0.5,3,3.09023230616781,0.05,1.341,1.9468313,1.32967423808791,2.11444895149168,2.68604691837794,24.8264858,2.027,17.0899674,2.027,17.2095609
2755,10,0.999,-0.1,0.5,1,3.09023230616781,0.01,1,0.1196963,NaN,NaN,NaN,0.0027749,3.5,0.2525802,3.5,0.2533095
2756,10,0.999,-0.1,0.5,1,3.09023230616781,0.05,1,0.1082458,NaN,NaN,NaN,0.0028069,3.5,0.2578824,3.5,0.2554915
2757,10,0.999,-0.1,0.5,2,3.09023230616781,0.01,1.04,0.2483098,1.70954820796329,2.40793209338038,2.77950757674997,0.0868264,3.47,2.1786921,3.47,2.1930403
2758,10,0.999,-0.1,0.5,2,3.09023230616781,0.05,1.04,0.2528791,1.70954820796329,2.40793209338038,2.77950757674997,0.0917364,3.47,2.3080308,3.47,2.3929794
2759,10,0.999,-0.1,0.5,3,3.09023230616781,0.01,0.894,1.3609887,1.05441113716044,1.44558569853882,1.69474889755486,24.3502123,3.47,17.2008862,3.47,17.484598
2760,10,0.999,-0.1,0.5,3,3.09023230616781,0.05,1.512,1.652739,1.05441113716044,1.44558569853882,1.69474889755486,24.3632234,3.47,17.1553461,3.47,17.6528667
2761,1,0.999,-0.1,1,1,3.09023230616781,0.01,2.1,0.3266876,2.218361732847,NaN,NaN,0.0059084,1.8,0.1754396,1.8,0.1686434
2762,1,0.999,-0.1,1,1,3.09023230616781,0.05,2.1,0.31543,2.218361732847,NaN,NaN,0.0058424,1.8,0.1726377,1.8,0.1726808
2763,1,0.999,-0.1,1,2,3.09023230616781,0.01,2.2,0.8929485,2.31976277215487,NaN,NaN,0.0903765,1.57,1.5095482,1.57,1.5118559
2764,1,0.999,-0.1,1,2,3.09023230616781,0.05,2.2,0.9301565,2.31976277215487,NaN,NaN,0.0965188,1.62,1.7172809,1.62,1.5886057
2765,1,0.999,-0.1,1,3,3.09023230616781,0.01,1.246,2.0678183,1.24296473231435,1.49216709904002,2.3849423796135,25.1851325,1.472,14.4576516,1.472,14.6318968
2766,1,0.999,-0.1,1,3,3.09023230616781,0.05,1.246,1.9631352,1.24296473231435,1.49216709904002,2.3849423796135,25.1233108,1.618,15.0604479,1.618,15.4761759
2767,2,0.999,-0.1,1,1,3.09023230616781,0.01,0.9,0.102117,1.57141304413706,NaN,NaN,0.004951,3.3,0.246454,3.3,0.2424688
2768,2,0.999,-0.1,1,1,3.09023230616781,0.05,1.5,0.234413,1.57141304413706,NaN,NaN,0.0049273,3.3,0.2406126,3.3,0.2411098
2769,2,0.999,-0.1,1,2,3.09023230616781,0.01,1.52,0.3716309,1.51956038472267,2.44741220823227,NaN,0.0821792,2.12,1.8842753,2.12,1.8861742
2770,2,0.999,-0.1,1,2,3.09023230616781,0.05,1.52,0.3637427,1.51956038472267,2.44741220823227,NaN,0.0743656,2.12,1.8780725,2.12,1.8931566
2771,2,0.999,-0.1,1,3,3.09023230616781,0.01,1.526,1.8427633,1.49476153953519,2.11484953421488,2.44490699249571,23.8867278,2.12,17.3442007,2.12,17.5747858
2772,2,0.999,-0.1,1,3,3.09023230616781,0.05,1.526,1.8766782,1.49476153953519,2.11484953421488,2.44490699249571,23.4998904,2.12,17.37843,2.12,17.7991222
2773,3,0.999,-0.1,1,1,3.09023230616781,0.01,1.5,0.1884597,NaN,NaN,NaN,0.0027646,1.9,0.1743184,1.9,0.1924831
2774,3,0.999,-0.1,1,1,3.09023230616781,0.05,1.5,0.2067679,NaN,NaN,NaN,0.0027546,1.9,0.2219308,1.9,0.1804532
2775,3,0.999,-0.1,1,2,3.09023230616781,0.01,1.6,0.3621257,1.60217665354317,2.5797438124763,NaN,0.0807376,1.52,1.4929253,1.52,1.517597
2776,3,0.999,-0.1,1,2,3.09023230616781,0.05,1.6,0.3569959,1.60217665354317,2.5797438124763,NaN,0.0782856,1.55,1.4904935,1.55,1.5177159
2777,3,0.999,-0.1,1,3,3.09023230616781,0.01,1.552,1.9110995,1.57342685508317,1.99654593015435,2.57421697035462,24.8786754,1.507,14.5772442,1.507,14.9286565
2778,3,0.999,-0.1,1,3,3.09023230616781,0.05,1.552,2.0148789,1.57342685508317,1.99654593015435,2.57421697035462,24.5942769,1.507,14.6895605,1.507,14.6564588
2779,4,0.999,-0.1,1,1,3.09023230616781,0.01,1.6,0.2271799,1.58190667655182,NaN,NaN,0.0050165,1.9,0.1803202,1.9,0.1771376
2780,4,0.999,-0.1,1,1,3.09023230616781,0.05,1.6,0.221228,1.58190667655182,NaN,NaN,0.0048328,1.9,0.1805766,1.9,0.1782298
2781,4,0.999,-0.1,1,2,3.09023230616781,0.01,1.21,0.4193861,1.60321633587639,2.82682155686665,NaN,0.0769039,1.55,1.487699,1.55,1.4933846
2782,4,0.999,-0.1,1,2,3.09023230616781,0.05,1.21,0.4147826,1.60321633587639,2.82682155686665,NaN,0.0813114,1.58,1.5098785,1.58,1.6075313
2783,4,0.999,-0.1,1,3,3.09023230616781,0.01,1.192,2.0929387,1.6072745842854,2.80620042850791,NaN,23.6634412,1.54,14.5356903,1.54,14.5054
2784,4,0.999,-0.1,1,3,3.09023230616781,0.05,1.192,1.9527385,1.6072745842854,2.80620042850791,NaN,23.3351708,1.578,15.0311467,1.578,14.7365069
2785,5,0.999,-0.1,1,1,3.09023230616781,0.01,0.7,0.1171652,1.60181371013527,NaN,NaN,0.0043267,3,0.2336043,3,0.2339631
2786,5,0.999,-0.1,1,1,3.09023230616781,0.05,1.5,0.2383618,1.60181371013527,NaN,NaN,0.0041206,3,0.231333,3,0.2278356
2787,5,0.999,-0.1,1,2,3.09023230616781,0.01,0.76,0.2375877,1.70793672095464,2.69885416687062,NaN,0.0666134,2.19,1.9096636,2.19,1.951033
2788,5,0.999,-0.1,1,2,3.09023230616781,0.05,0.76,0.2475706,1.70793672095464,2.69885416687062,NaN,0.081059,2.19,1.8993352,2.19,1.954275
2789,5,0.999,-0.1,1,3,3.09023230616781,0.01,0.764,1.3389821,1.74154734300518,2.6205627434403,NaN,25.834656,2.158,18.1354506,2.158,17.7955047
2790,5,0.999,-0.1,1,3,3.09023230616781,0.05,0.764,1.329097,1.74154734300518,2.6205627434403,NaN,25.4793923,2.158,18.1708882,2.158,17.6253589
2791,6,0.999,-0.1,1,1,3.09023230616781,0.01,1.6,0.1953805,NaN,NaN,NaN,0.0026628,1.9,0.1860523,1.9,0.197293
2792,6,0.999,-0.1,1,1,3.09023230616781,0.05,1.6,0.1830521,NaN,NaN,NaN,0.0026621,1.9,0.1830092,1.9,0.1841096
2793,6,0.999,-0.1,1,2,3.09023230616781,0.01,1.39,0.470229,2.81872936159939,NaN,NaN,0.0780631,1.68,1.6038243,1.68,1.6456797
2794,6,0.999,-0.1,1,2,3.09023230616781,0.05,1.91,0.60253,2.81872936159939,NaN,NaN,0.0892088,1.68,1.6635445,1.68,1.5857309
2795,6,0.999,-0.1,1,3,3.09023230616781,0.01,1.395,1.9226697,1.8817545568557,2.36146703707118,2.82202024958183,24.7860015,1.64,15.8522777,1.64,15.3171872
2796,6,0.999,-0.1,1,3,3.09023230616781,0.05,1.395,1.9269378,1.8817545568557,2.36146703707118,2.82202024958183,24.2135962,1.64,15.9094804,1.64,15.474799
2797,7,0.999,-0.1,1,1,3.09023230616781,0.01,1.9,0.1982635,NaN,NaN,NaN,0.0027885,1.8,0.1764096,1.8,0.17374
2798,7,0.999,-0.1,1,1,3.09023230616781,0.05,2.6,0.2788342,NaN,NaN,NaN,0.002757,1.8,0.1779383,1.8,0.1742354
2799,7,0.999,-0.1,1,2,3.09023230616781,0.01,1.62,0.4880814,2.03951120250871,NaN,NaN,0.093846,1.5,1.4621301,1.58,1.5290421
2800,7,0.999,-0.1,1,2,3.09023230616781,0.05,1.62,0.4755132,2.03951120250871,NaN,NaN,0.093873,1.65,1.549833,1.65,1.5699365
2801,7,0.999,-0.1,1,3,3.09023230616781,0.01,0.931,1.2866297,1.47579185341553,1.99369862068077,NaN,24.8155878,1.452,14.4164854,1.452,14.3287154
2802,7,0.999,-0.1,1,3,3.09023230616781,0.05,0.931,1.3123131,1.47579185341553,1.99369862068077,NaN,24.6859514,1.452,14.389011,1.452,14.7057088
2803,8,0.999,-0.1,1,1,3.09023230616781,0.01,1.5,0.19841,NaN,NaN,NaN,0.0028166,1.8,0.1733318,1.8,0.1712051
2804,8,0.999,-0.1,1,1,3.09023230616781,0.05,2.1,0.2796876,NaN,NaN,NaN,0.0026591,1.8,0.1706651,1.8,0.1679562
2805,8,0.999,-0.1,1,2,3.09023230616781,0.01,1.55,0.4795036,2.79281016663924,NaN,NaN,0.0826213,1.54,1.5028212,1.54,1.492913
2806,8,0.999,-0.1,1,2,3.09023230616781,0.05,1.55,0.4871272,2.79281016663924,NaN,NaN,0.0803356,1.54,1.5105982,1.54,1.5121466
2807,8,0.999,-0.1,1,3,3.09023230616781,0.01,0.758,1.3100693,1.04852765517511,1.79837879273484,2.34338015026696,24.860807,1.514,15.0609019,1.514,15.2181593
2808,8,0.999,-0.1,1,3,3.09023230616781,0.05,0.758,1.2947944,1.04852765517511,1.79837879273484,2.34338015026696,25.0902702,1.514,14.692642,1.514,15.0225725
2809,9,0.999,-0.1,1,1,3.09023230616781,0.01,1.6,0.2315794,NaN,NaN,NaN,0.0031583,2.1,0.1890601,2.1,0.198871
2810,9,0.999,-0.1,1,1,3.09023230616781,0.05,2.4,0.5159917,NaN,NaN,NaN,0.0027482,2.1,0.1908562,2.1,0.1879261
2811,9,0.999,-0.1,1,2,3.09023230616781,0.01,1.64,0.4783025,2.27232189097082,2.73936951144796,NaN,0.0818769,1.58,1.5796499,1.58,1.7509135
2812,9,0.999,-0.1,1,2,3.09023230616781,0.05,1.64,0.5124611,2.27232189097082,2.73936951144796,NaN,0.088313,1.58,1.7319856,1.58,1.7714263
2813,9,0.999,-0.1,1,3,3.09023230616781,0.01,1.398,1.8357131,1.83161553556203,2.2549243578284,2.73945685354479,24.1954892,1.568,15.6058718,1.568,15.7769829
2814,9,0.999,-0.1,1,3,3.09023230616781,0.05,1.398,1.8778007,1.83161553556203,2.2549243578284,2.73945685354479,24.0838657,1.568,15.3901778,1.568,15.6422467
2815,10,0.999,-0.1,1,1,3.09023230616781,0.01,1.4,0.2374525,2.32402868096541,NaN,NaN,0.0055416,1.8,0.1759726,1.8,0.1713731
2816,10,0.999,-0.1,1,1,3.09023230616781,0.05,1.4,0.2028872,2.32402868096541,NaN,NaN,0.0056039,1.8,0.1740762,1.8,0.1696679
2817,10,0.999,-0.1,1,2,3.09023230616781,0.01,1.44,0.4957003,2.22986844254445,2.62736426714592,NaN,0.0742804,1.42,1.4406069,1.42,1.4526432
2818,10,0.999,-0.1,1,2,3.09023230616781,0.05,1.44,0.476522,2.22986844254445,2.62736426714592,NaN,0.0947515,1.42,1.4317856,1.42,1.4417931
2819,10,0.999,-0.1,1,3,3.09023230616781,0.01,1.444,1.8887118,1.44270826625655,2.1869897293413,2.30595926993006,23.7380138,1.407,14.1812859,1.405,14.2757083
2820,10,0.999,-0.1,1,3,3.09023230616781,0.05,1.444,1.9343166,1.44270826625655,2.1869897293413,2.30595926993006,23.9642983,1.407,14.2294942,1.407,14.1273264
2821,1,0.999,-0.1,2,1,3.09023230616781,0.01,2,0.3582505,2.39966923979852,NaN,NaN,0.0054044,1.5,0.1452373,1.5,0.1434129
2822,1,0.999,-0.1,2,1,3.09023230616781,0.05,2.6,0.4743404,2.39966923979852,NaN,NaN,0.0056465,1.5,0.1463161,1.5,0.1717717
2823,1,0.999,-0.1,2,2,3.09023230616781,0.01,1.75,0.7291001,2.53590404149661,NaN,NaN,0.0888789,1.13,1.1330623,1.13,1.1371348
2824,1,0.999,-0.1,2,2,3.09023230616781,0.05,1.75,0.7019762,2.53590404149661,NaN,NaN,0.0824915,1.31,1.2466948,1.31,1.2669704
2825,1,0.999,-0.1,2,3,3.09023230616781,0.01,1.143,2.1510155,2.25742882065022,2.58018417961979,NaN,23.9485654,1.128,11.3921515,1.128,11.3871651
2826,1,0.999,-0.1,2,3,3.09023230616781,0.05,1.143,2.0561823,2.25742882065022,2.58018417961979,NaN,23.767645,1.303,12.6892179,1.302,12.6592998
2827,2,0.999,-0.1,2,1,3.09023230616781,0.01,1.3,0.2466414,NaN,NaN,NaN,0.0028975,1.5,0.1483667,1.5,0.1507352
2828,2,0.999,-0.1,2,1,3.09023230616781,0.05,1.9,0.3352667,NaN,NaN,NaN,0.0027421,1.5,0.151313,1.5,0.1472349
2829,2,0.999,-0.1,2,2,3.09023230616781,0.01,1.37,0.3941363,2.24892101933185,2.72971709488393,NaN,0.0865406,1.25,1.2682258,1.25,1.2649588
2830,2,0.999,-0.1,2,2,3.09023230616781,0.05,1.37,0.3920447,2.24892101933185,2.72971709488393,NaN,0.0806433,1.29,1.2888604,1.29,1.2935479
2831,2,0.999,-0.1,2,3,3.09023230616781,0.01,1.254,1.9570694,1.57966123446868,2.20332442074601,2.7220643246489,25.142073,1.251,12.6429456,1.251,13.1104216
2832,2,0.999,-0.1,2,3,3.09023230616781,0.05,1.254,1.9478736,1.57966123446868,2.20332442074601,2.7220643246489,25.2498985,1.286,12.9567175,1.286,12.8296319
2833,3,0.999,-0.1,2,1,3.09023230616781,0.01,2.2,0.3271753,NaN,NaN,NaN,0.0025811,2.2,0.2000606,2.2,0.1949206
2834,3,0.999,-0.1,2,1,3.09023230616781,0.05,2.2,0.317682,NaN,NaN,NaN,0.0028564,2.2,0.1971794,2.2,0.1990092
2835,3,0.999,-0.1,2,2,3.09023230616781,0.01,1.58,0.3889349,1.57318671820783,NaN,NaN,0.0810614,1.68,1.6674049,1.68,1.8342712
2836,3,0.999,-0.1,2,2,3.09023230616781,0.05,1.58,0.468635,1.57318671820783,NaN,NaN,0.0782744,1.69,1.7847375,1.69,1.77394
2837,3,0.999,-0.1,2,3,3.09023230616781,0.01,0.894,1.2727227,1.54945016986894,2.22452967456829,NaN,23.8605803,1.654,16.0232526,1.654,16.1388416
2838,3,0.999,-0.1,2,3,3.09023230616781,0.05,1.589,1.8852227,1.54945016986894,2.22452967456829,NaN,24.5749699,1.654,15.9477687,1.654,16.2497866
2839,4,0.999,-0.1,2,1,3.09023230616781,0.01,1.3,0.1876024,NaN,NaN,NaN,0.0024694,1.7,0.1731727,1.7,0.171139
2840,4,0.999,-0.1,2,1,3.09023230616781,0.05,1.3,0.1749235,NaN,NaN,NaN,0.0024348,1.7,0.1645438,1.7,0.1634344
2841,4,0.999,-0.1,2,2,3.09023230616781,0.01,1.36,0.464854,NaN,NaN,NaN,0.0889265,1.46,1.4342616,1.46,1.4218825
2842,4,0.999,-0.1,2,2,3.09023230616781,0.05,1.36,0.4755796,NaN,NaN,NaN,0.0796191,1.46,1.4457365,1.46,1.4281611
2843,4,0.999,-0.1,2,3,3.09023230616781,0.01,1.365,1.9708178,1.56172620235562,1.83839876384892,NaN,24.2022325,1.452,14.3216187,1.452,14.4420623
2844,4,0.999,-0.1,2,3,3.09023230616781,0.05,1.365,1.9288767,1.56172620235562,1.83839876384892,NaN,24.1217649,1.452,14.178273,1.452,14.1616312
2845,5,0.999,-0.1,2,1,3.09023230616781,0.01,1.5,0.2615508,2.12227330383349,NaN,NaN,0.0052027,1.5,0.1441607,1.5,0.145485
2846,5,0.999,-0.1,2,1,3.09023230616781,0.05,2.1,0.3785655,2.12227330383349,NaN,NaN,0.0051906,1.5,0.1444504,1.5,0.1485686
2847,5,0.999,-0.1,2,2,3.09023230616781,0.01,1.46,0.3527265,2.26302982784338,NaN,NaN,0.0887991,1.13,1.1719656,1.15,1.1654742
2848,5,0.999,-0.1,2,2,3.09023230616781,0.05,1.46,0.3694749,2.26302982784338,NaN,NaN,0.0934685,1.19,1.2949765,1.19,1.2633344
2849,5,0.999,-0.1,2,3,3.09023230616781,0.01,1.465,2.0077933,1.60973180488606,1.80890065527337,2.19607327074183,25.1438757,1.154,11.6395136,1.154,11.6380722
2850,5,0.999,-0.1,2,3,3.09023230616781,0.05,1.465,1.9115778,1.60973180488606,1.80890065527337,2.19607327074183,25.0068171,1.188,12.3146847,1.192,11.9038264
2851,6,0.999,-0.1,2,1,3.09023230616781,0.01,1.8,0.3385602,2.3313306088383,NaN,NaN,0.0048796,1.5,0.146694,1.4,0.1411813
2852,6,0.999,-0.1,2,1,3.09023230616781,0.05,2.3,0.4427883,2.3313306088383,NaN,NaN,0.0049472,1.5,0.1446605,1.5,0.1479988
2853,6,0.999,-0.1,2,2,3.09023230616781,0.01,1.8,0.7065188,2.36162987289239,NaN,NaN,0.1015864,1.18,1.2009493,1.18,1.2130108
2854,6,0.999,-0.1,2,2,3.09023230616781,0.05,1.8,0.7040147,2.36162987289239,NaN,NaN,0.1022874,1.26,1.2576347,1.26,1.2534359
2855,6,0.999,-0.1,2,3,3.09023230616781,0.01,1.331,2.0463513,1.41856625154372,1.79438286425539,2.37015138201471,25.4420146,1.176,12.1540559,1.183,12.6207988
2856,6,0.999,-0.1,2,3,3.09023230616781,0.05,1.331,2.0205016,1.41856625154372,1.79438286425539,2.37015138201471,24.8113826,1.256,12.8693378,1.257,12.605191
2857,7,0.999,-0.1,2,1,3.09023230616781,0.01,2,0.3300131,NaN,NaN,NaN,0.0028572,1.6,0.1571596,1.6,0.1600833
2858,7,0.999,-0.1,2,1,3.09023230616781,0.05,2,0.3277555,NaN,NaN,NaN,0.0028331,1.6,0.1572395,1.6,0.1669677
2859,7,0.999,-0.1,2,2,3.09023230616781,0.01,1.44,0.4905785,2.59826298363329,NaN,NaN,0.0915771,1.26,1.4794192,1.26,1.3676378
2860,7,0.999,-0.1,2,2,3.09023230616781,0.05,2.08,0.7087115,2.59826298363329,NaN,NaN,0.1162594,1.26,1.3750626,1.26,1.2885304
2861,7,0.999,-0.1,2,3,3.09023230616781,0.01,1.369,2.0101432,1.66341874579707,2.07966341465986,2.60923044715713,25.842519,1.254,12.7923165,1.254,12.9430133
2862,7,0.999,-0.1,2,3,3.09023230616781,0.05,1.369,2.0237792,1.66341874579707,2.07966341465986,2.60923044715713,26.5367489,1.262,12.7018361,1.254,12.8226706
2863,8,0.999,-0.1,2,1,3.09023230616781,0.01,1.9,0.3453944,NaN,NaN,NaN,0.0028525,1.5,0.1495561,1.5,0.1562125
2864,8,0.999,-0.1,2,1,3.09023230616781,0.05,1.9,0.3717347,NaN,NaN,NaN,0.0035275,1.5,0.1852129,1.5,0.1468834
2865,8,0.999,-0.1,2,2,3.09023230616781,0.01,1.63,0.7583389,2.66625932527042,NaN,NaN,0.0859388,1.23,1.2802023,1.23,1.2672832
2866,8,0.999,-0.1,2,2,3.09023230616781,0.05,1.63,0.7178255,2.66625932527042,NaN,NaN,0.0705677,1.24,1.2551456,1.24,1.2591497
2867,8,0.999,-0.1,2,3,3.09023230616781,0.01,1.271,1.9367701,1.91552571506632,2.59772542909146,NaN,24.1162978,1.231,12.3425111,1.231,12.350997
2868,8,0.999,-0.1,2,3,3.09023230616781,0.05,1.271,1.961375,1.91552571506632,2.59772542909146,NaN,23.9227035,1.235,12.8011908,1.233,12.6217977
2869,9,0.999,-0.1,2,1,3.09023230616781,0.01,1.9,0.332653,2.12314856201228,NaN,NaN,0.0058024,1.5,0.1487411,1.5,0.1441418
2870,9,0.999,-0.1,2,1,3.09023230616781,0.05,2.2,0.4555145,2.12314856201228,NaN,NaN,0.0051571,1.6,0.153604,1.6,0.1511524
2871,9,0.999,-0.1,2,2,3.09023230616781,0.01,1.88,0.7285568,2.19592089559924,NaN,NaN,0.094131,1.19,1.1982182,1.19,1.1888186
2872,9,0.999,-0.1,2,2,3.09023230616781,0.05,1.88,0.675146,2.19592089559924,NaN,NaN,0.0732204,1.22,1.2461803,1.21,1.2193503
2873,9,0.999,-0.1,2,3,3.09023230616781,0.01,1.347,1.9878376,1.31889160117171,2.21182539643595,NaN,24.3215747,1.186,12.5290017,1.186,12.0393387
2874,9,0.999,-0.1,2,3,3.09023230616781,0.05,1.347,2.0005839,1.31889160117171,2.21182539643595,NaN,24.3171907,1.216,12.4253371,1.208,12.501639
2875,10,0.999,-0.1,2,1,3.09023230616781,0.01,2,0.3192872,NaN,NaN,NaN,0.0031399,1.5,0.1461949,1.5,0.148441
2876,10,0.999,-0.1,2,1,3.09023230616781,0.05,2.5,0.4400906,NaN,NaN,NaN,0.0030306,1.5,0.145502,1.5,0.1451257
2877,10,0.999,-0.1,2,2,3.09023230616781,0.01,2.09,0.9503601,2.46303303849448,NaN,NaN,0.0942493,1.25,1.2396181,1.26,1.2585555
2878,10,0.999,-0.1,2,2,3.09023230616781,0.05,2.09,0.9477047,2.46303303849448,NaN,NaN,0.0903942,1.31,1.3031634,1.31,1.2875269
2879,10,0.999,-0.1,2,3,3.09023230616781,0.01,1.234,2.0369003,1.60011892007361,2.50047151147774,NaN,24.8481287,1.251,12.7126784,1.251,12.373572
2880,10,0.999,-0.1,2,3,3.09023230616781,0.05,1.234,2.1588887,1.60011892007361,2.50047151147774,NaN,25.622983,1.299,12.699698,1.291,13.0091132
2881,1,0.999,-0.05,0.5,1,3.09023230616781,0.01,1,0.1112859,1.99884043585087,NaN,NaN,0.0047526,3.3,0.247121,3.3,0.2414028
2882,1,0.999,-0.05,0.5,1,3.09023230616781,0.05,1,0.0975398,1.99884043585087,NaN,NaN,0.0042795,3.3,0.2471116,3.3,0.2496105
2883,1,0.999,-0.05,0.5,2,3.09023230616781,0.01,1.06,0.2555614,2.04896758862671,2.85707296624079,NaN,0.0832095,3.35,2.1532558,3.35,2.1608343
2884,1,0.999,-0.05,0.5,2,3.09023230616781,0.05,1.06,0.2425808,2.04896758862671,2.85707296624079,NaN,0.0763087,3.35,2.1600429,3.35,2.1675846
2885,1,0.999,-0.05,0.5,3,3.09023230616781,0.01,0.966,1.2708825,1.39727697001432,2.03399556476953,2.43103365784013,24.2682082,2.059,16.7954455,2.059,17.1238833
2886,1,0.999,-0.05,0.5,3,3.09023230616781,0.05,1.416,1.8148176,1.39727697001432,2.03399556476953,2.43103365784013,24.7282237,2.059,16.7897815,2.059,17.07496
2887,2,0.999,-0.05,0.5,1,3.09023230616781,0.01,1.8,0.1932197,1.93601656478054,NaN,NaN,0.0046199,3.3,0.2535102,3.3,0.255156
2888,2,0.999,-0.05,0.5,1,3.09023230616781,0.05,1.8,0.1898675,1.93601656478054,NaN,NaN,0.0046503,3.3,0.2537659,3.3,0.2574914
2889,2,0.999,-0.05,0.5,2,3.09023230616781,0.01,1.78,0.3560017,1.84329470741088,2.78700148067738,NaN,0.0687953,3.25,2.2246176,3.25,2.3506839
2890,2,0.999,-0.05,0.5,2,3.09023230616781,0.05,1.78,0.3671663,1.84329470741088,2.78700148067738,NaN,0.0845531,3.25,2.259279,3.25,2.2482757
2891,2,0.999,-0.05,0.5,3,3.09023230616781,0.01,0.846,1.2997294,0.953659639918176,1.85105568658279,2.69571880461448,24.5932114,3.254,18.7464411,3.254,18.9818374
2892,2,0.999,-0.05,0.5,3,3.09023230616781,0.05,0.846,1.2977884,0.953659639918176,1.85105568658279,2.69571880461448,24.6832071,3.254,18.6356527,3.254,18.8099641
2893,3,0.999,-0.05,0.5,1,3.09023230616781,0.01,1,0.1063918,NaN,NaN,NaN,0.0027801,3.5,0.2493746,3.5,0.2453829
2894,3,0.999,-0.05,0.5,1,3.09023230616781,0.05,1.7,0.2462898,NaN,NaN,NaN,0.0030495,3.5,0.2411856,3.5,0.2386686
2895,3,0.999,-0.05,0.5,2,3.09023230616781,0.01,1.29,0.384958,2.08424995099327,NaN,NaN,0.0820331,1.76,1.6330227,1.76,1.6449521
2896,3,0.999,-0.05,0.5,2,3.09023230616781,0.05,1.29,0.3765544,2.08424995099327,NaN,NaN,0.0794577,1.76,1.6281862,1.76,1.7922012
2897,3,0.999,-0.05,0.5,3,3.09023230616781,0.01,1.273,2.1263779,1.25632302403182,1.76429331664341,2.08015972562412,24.9347946,1.73,15.5791518,1.73,16.2312591
2898,3,0.999,-0.05,0.5,3,3.09023230616781,0.05,1.273,2.0173465,1.25632302403182,1.76429331664341,2.08015972562412,25.2342041,1.73,15.6374469,1.73,15.9790366
2899,4,0.999,-0.05,0.5,1,3.09023230616781,0.01,1,0.0934436,NaN,NaN,NaN,0.0028176,1.9,0.1850851,1.9,0.1775814
2900,4,0.999,-0.05,0.5,1,3.09023230616781,0.05,1.4,0.2075853,NaN,NaN,NaN,0.0027782,1.9,0.1827321,1.9,0.177717
2901,4,0.999,-0.05,0.5,2,3.09023230616781,0.01,1.42,0.3649459,1.71469858052788,NaN,NaN,0.083185,1.63,1.5973342,1.63,1.5578115
2902,4,0.999,-0.05,0.5,2,3.09023230616781,0.05,1.42,0.3634793,1.71469858052788,NaN,NaN,0.0919734,1.63,1.5535881,1.63,1.5627182
2903,4,0.999,-0.05,0.5,3,3.09023230616781,0.01,1.423,1.9683064,1.41282919483741,1.69590677509961,2.61203335519221,25.1902614,1.593,15.1064901,1.593,15.365298
2904,4,0.999,-0.05,0.5,3,3.09023230616781,0.05,1.423,1.9582079,1.41282919483741,1.69590677509961,2.61203335519221,24.7859284,1.593,15.0403043,1.593,15.0787156
2905,5,0.999,-0.05,0.5,1,3.09023230616781,0.01,1.3,0.2250877,1.48671720309802,NaN,NaN,0.004986,2.2,0.1991508,2.2,0.1950879
2906,5,0.999,-0.05,0.5,1,3.09023230616781,0.05,1.3,0.2164792,1.48671720309802,NaN,NaN,0.0063532,2.2,0.2066656,2.2,0.2035306
2907,5,0.999,-0.05,0.5,2,3.09023230616781,0.01,1.28,0.3488686,1.50381271671798,2.50965157009308,NaN,0.093776,2.01,1.9573017,2.01,1.9350398
2908,5,0.999,-0.05,0.5,2,3.09023230616781,0.05,1.28,0.3846723,1.50381271671798,2.50965157009308,NaN,0.0916483,2.05,1.8539398,2.05,1.8753967
2909,5,0.999,-0.05,0.5,3,3.09023230616781,0.01,1.278,1.9092326,1.26541641738056,1.46613191574743,2.16531130311126,24.2668709,1.776,16.4182688,1.776,16.4832646
2910,5,0.999,-0.05,0.5,3,3.09023230616781,0.05,1.278,1.9561127,1.26541641738056,1.46613191574743,2.16531130311126,24.5306215,1.776,16.3686486,1.776,16.5126068
2911,6,0.999,-0.05,0.5,1,3.09023230616781,0.01,0.9,0.0948508,1.23207067722585,1.9707129065892,NaN,0.0052452,3.3,0.2609391,3.3,0.2556362
2912,6,0.999,-0.05,0.5,1,3.09023230616781,0.05,1.9,0.2911565,1.23207067722585,1.9707129065892,NaN,0.0051511,3.3,0.2556819,3.3,0.2582481
2913,6,0.999,-0.05,0.5,2,3.09023230616781,0.01,1.95,0.4910678,1.13580699069658,1.8861121744827,2.29695120877786,0.0990641,3.29,2.272781,3.29,2.3369968
2914,6,0.999,-0.05,0.5,2,3.09023230616781,0.05,1.95,0.4950287,1.13580699069658,1.8861121744827,2.29695120877786,0.1048832,3.29,2.4024904,3.29,2.3294223
2915,6,0.999,-0.05,0.5,3,3.09023230616781,0.01,0.872,1.3138165,1.0924575806514,1.93022825175643,NaN,25.1163469,3.289,18.6308758,3.289,18.9247083
2916,6,0.999,-0.05,0.5,3,3.09023230616781,0.05,1.257,1.7951053,1.0924575806514,1.93022825175643,NaN,25.3677675,3.289,18.4838104,3.289,18.6922039
2917,7,0.999,-0.05,0.5,1,3.09023230616781,0.01,1,0.1094383,NaN,NaN,NaN,0.0026082,3.2,0.2443888,3.2,0.2745755
2918,7,0.999,-0.05,0.5,1,3.09023230616781,0.05,1,0.1217634,NaN,NaN,NaN,0.0028279,3.2,0.2475308,3.2,0.2467418
2919,7,0.999,-0.05,0.5,2,3.09023230616781,0.01,0.9,0.2570788,2.08999803567448,2.67196101170932,NaN,0.0860056,3.16,2.1995843,3.16,2.2016775
2920,7,0.999,-0.05,0.5,2,3.09023230616781,0.05,1.85,0.3591445,2.08999803567448,2.67196101170932,NaN,0.0804824,3.16,2.2245479,3.16,2.1888647
2921,7,0.999,-0.05,0.5,3,3.09023230616781,0.01,0.909,1.2522225,1.85555141084645,2.09068687148667,2.36477453082495,23.4278591,3.157,18.1820166,3.157,18.388249
2922,7,0.999,-0.05,0.5,3,3.09023230616781,0.05,0.909,1.2640994,1.85555141084645,2.09068687148667,2.36477453082495,23.6534388,3.157,18.2218851,3.157,18.4941643
2923,8,0.999,-0.05,0.5,1,3.09023230616781,0.01,1.6,0.2627651,2.09380182966365,NaN,NaN,0.0053125,3.6,0.2476993,3.6,0.2495237
2924,8,0.999,-0.05,0.5,1,3.09023230616781,0.05,1.6,0.2256097,2.09380182966365,NaN,NaN,0.0043402,3.6,0.2527901,3.6,0.245578
2925,8,0.999,-0.05,0.5,2,3.09023230616781,0.01,1.64,0.3705436,1.61697290419919,2.02721060415235,NaN,0.1069232,1.66,1.5774979,1.66,1.5819629
2926,8,0.999,-0.05,0.5,2,3.09023230616781,0.05,1.64,0.3715015,1.61697290419919,2.02721060415235,NaN,0.075239,1.66,1.6074673,1.66,1.5789514
2927,8,0.999,-0.05,0.5,3,3.09023230616781,0.01,1.334,1.9373603,1.61312745233858,2.05809398369441,NaN,24.3540173,1.62,15.278655,1.62,15.5214115
2928,8,0.999,-0.05,0.5,3,3.09023230616781,0.05,1.334,1.9707014,1.61312745233858,2.05809398369441,NaN,24.6655466,1.655,15.3344968,1.655,15.3206329
2929,9,0.999,-0.05,0.5,1,3.09023230616781,0.01,0.9,0.1017113,1.65740757062953,NaN,NaN,0.0050347,3.1,0.2463915,3.1,0.2450263
2930,9,0.999,-0.05,0.5,1,3.09023230616781,0.05,1.5,0.2099857,1.65740757062953,NaN,NaN,0.0052485,3.1,0.245603,3.1,0.2463092
2931,9,0.999,-0.05,0.5,2,3.09023230616781,0.01,0.88,0.2463614,1.55826627598595,1.78252043232142,2.75673698155552,0.0931098,3.14,2.2348652,3.14,2.4193721
2932,9,0.999,-0.05,0.5,2,3.09023230616781,0.05,1.5,0.408086,1.55826627598595,1.78252043232142,2.75673698155552,0.0966854,3.14,2.3620626,3.14,2.225217
2933,9,0.999,-0.05,0.5,3,3.09023230616781,0.01,0.885,1.3005193,1.53576290020396,2.76108062376496,NaN,24.3498416,3.143,18.3024692,3.143,18.7621448
2934,9,0.999,-0.05,0.5,3,3.09023230616781,0.05,0.885,1.3203936,1.53576290020396,2.76108062376496,NaN,24.6965215,3.143,18.3225886,3.143,18.3666091
2935,10,0.999,-0.05,0.5,1,3.09023230616781,0.01,1.1,0.1163149,1.96145617074372,NaN,NaN,0.0050266,3.2,0.2731995,3.2,0.2473822
2936,10,0.999,-0.05,0.5,1,3.09023230616781,0.05,1.9,0.325113,1.96145617074372,NaN,NaN,0.0053805,3.2,0.245358,3.2,0.2623672
2937,10,0.999,-0.05,0.5,2,3.09023230616781,0.01,1.32,0.3470278,1.8996110239271,2.56158282787421,NaN,0.0839155,3.21,2.3099725,3.21,2.2640535
2938,10,0.999,-0.05,0.5,2,3.09023230616781,0.05,1.32,0.3533749,1.8996110239271,2.56158282787421,NaN,0.0921145,3.21,2.2472061,3.21,2.2579002
2939,10,0.999,-0.05,0.5,3,3.09023230616781,0.01,1.266,1.9472757,1.31299380839133,1.81710350147826,2.23684397033844,25.0269316,3.211,18.5876577,3.211,18.7548838
2940,10,0.999,-0.05,0.5,3,3.09023230616781,0.05,1.266,1.9678956,1.31299380839133,1.81710350147826,2.23684397033844,25.1613276,3.211,18.5041245,3.211,18.8007526
2941,1,0.999,-0.05,1,1,3.09023230616781,0.01,1.5,0.1975686,NaN,NaN,NaN,0.0030295,1.8,0.1771264,1.8,0.1704565
2942,1,0.999,-0.05,1,1,3.09023230616781,0.05,1.5,0.198648,NaN,NaN,NaN,0.0030028,1.8,0.1757188,1.8,0.1685382
2943,1,0.999,-0.05,1,2,3.09023230616781,0.01,1.5,0.4737369,2.67219898841813,NaN,NaN,0.1085472,1.44,1.4488007,1.44,1.4512752
2944,1,0.999,-0.05,1,2,3.09023230616781,0.05,1.5,0.4722615,2.67219898841813,NaN,NaN,0.0950046,1.44,1.4444154,1.44,1.4645686
2945,1,0.999,-0.05,1,3,3.09023230616781,0.01,1.441,1.9448796,1.4784859922744,2.16794497092104,2.26921409031277,25.8268147,1.433,14.4277416,1.432,14.6010819
2946,1,0.999,-0.05,1,3,3.09023230616781,0.05,1.441,1.9435178,1.4784859922744,2.16794497092104,2.26921409031277,25.6876536,1.433,14.3299482,1.433,14.3845849
2947,2,0.999,-0.05,1,1,3.09023230616781,0.01,1,0.1024387,NaN,NaN,NaN,0.0026706,2,0.1885875,2,0.1925378
2948,2,0.999,-0.05,1,1,3.09023230616781,0.05,1,0.096703,NaN,NaN,NaN,0.0027513,2,0.1842138,2,0.1822765
2949,2,0.999,-0.05,1,2,3.09023230616781,0.01,1.44,0.4216693,2.57637502575639,NaN,NaN,0.0826316,1.74,1.7174619,1.74,1.7544613
2950,2,0.999,-0.05,1,2,3.09023230616781,0.05,1.44,0.41185,2.57637502575639,NaN,NaN,0.0692594,1.74,1.6397004,1.74,1.6200172
2951,2,0.999,-0.05,1,3,3.09023230616781,0.01,1.126,1.9967834,1.39766681133108,1.77651158180714,1.91250988136372,23.9010724,1.725,15.5848613,1.725,15.6413009
2952,2,0.999,-0.05,1,3,3.09023230616781,0.05,1.126,2.0612791,1.39766681133108,1.77651158180714,1.91250988136372,23.5990827,1.725,15.7268099,1.725,15.656138
2953,3,0.999,-0.05,1,1,3.09023230616781,0.01,1.6,0.1877239,2.14457397910454,NaN,NaN,0.0052845,1.7,0.1670904,1.7,0.1679179
2954,3,0.999,-0.05,1,1,3.09023230616781,0.05,2,0.2840146,2.14457397910454,NaN,NaN,0.0049828,1.7,0.168047,1.7,0.1683642
2955,3,0.999,-0.05,1,2,3.09023230616781,0.01,1.96,0.6980948,2.25391739292446,NaN,NaN,0.0813016,1.37,1.3943559,1.37,1.3993366
2956,3,0.999,-0.05,1,2,3.09023230616781,0.05,1.96,0.6909651,2.25391739292446,NaN,NaN,0.0926038,1.37,1.392549,1.37,1.4041977
2957,3,0.999,-0.05,1,3,3.09023230616781,0.01,1.423,1.9853928,1.56502625362436,2.02124830876422,2.26256964701584,25.1173808,1.32,13.6068505,1.32,13.6536569
2958,3,0.999,-0.05,1,3,3.09023230616781,0.05,1.423,1.9819358,1.56502625362436,2.02124830876422,2.26256964701584,25.0023053,1.32,14.0510412,1.32,13.6382284
2959,4,0.999,-0.05,1,1,3.09023230616781,0.01,1.4,0.2054565,NaN,NaN,NaN,0.0024893,1.9,0.1848493,1.9,0.1880405
2960,4,0.999,-0.05,1,1,3.09023230616781,0.05,1.4,0.1985579,NaN,NaN,NaN,0.0025224,1.9,0.1867416,1.9,0.1825476
2961,4,0.999,-0.05,1,2,3.09023230616781,0.01,1.45,0.4694673,2.52266187938552,NaN,NaN,0.0954954,1.56,1.5577996,1.56,1.5676787
2962,4,0.999,-0.05,1,2,3.09023230616781,0.05,1.45,0.4799275,2.52266187938552,NaN,NaN,0.0710441,1.63,1.5977022,1.63,1.6074852
2963,4,0.999,-0.05,1,3,3.09023230616781,0.01,1.314,2.0226299,1.44355810422887,2.05351647035216,2.53409423378001,24.5070714,1.523,16.5636695,1.523,15.3098403
2964,4,0.999,-0.05,1,3,3.09023230616781,0.05,1.314,2.0134877,1.44355810422887,2.05351647035216,2.53409423378001,25.0599498,1.523,15.4006084,1.523,15.7971152
2965,5,0.999,-0.05,1,1,3.09023230616781,0.01,1.6,0.2106978,NaN,NaN,NaN,0.002839,1.9,0.182622,1.9,0.1747234
2966,5,0.999,-0.05,1,1,3.09023230616781,0.05,2.1,0.2984923,NaN,NaN,NaN,0.0027938,1.9,0.1784031,1.9,0.176138
2967,5,0.999,-0.05,1,2,3.09023230616781,0.01,1.53,0.4832089,2.50536552835754,NaN,NaN,0.0946257,1.63,1.5448526,1.63,1.5349329
2968,5,0.999,-0.05,1,2,3.09023230616781,0.05,2.11,0.681477,2.50536552835754,NaN,NaN,0.1044618,1.63,1.5378924,1.71,1.5902341
2969,5,0.999,-0.05,1,3,3.09023230616781,0.01,0.773,1.3184574,1.23086910073513,1.48812105944938,2.15594798902858,24.958097,1.63,15.0308753,1.63,15.5690911
2970,5,0.999,-0.05,1,3,3.09023230616781,0.05,0.773,1.3260327,1.23086910073513,1.48812105944938,2.15594798902858,24.6151494,1.63,15.2851662,1.698,15.9133138
2971,6,0.999,-0.05,1,1,3.09023230616781,0.01,1.5,0.1936841,NaN,NaN,NaN,0.0027086,1.9,0.1817485,1.9,0.1792797
2972,6,0.999,-0.05,1,1,3.09023230616781,0.05,1.5,0.1806817,NaN,NaN,NaN,0.0026699,1.9,0.1898428,1.9,0.1881244
2973,6,0.999,-0.05,1,2,3.09023230616781,0.01,1.39,0.4778809,1.87120303337359,2.83845719705774,NaN,0.0855372,1.67,1.6436295,1.67,1.6776354
2974,6,0.999,-0.05,1,2,3.09023230616781,0.05,1.39,0.4613992,1.87120303337359,2.83845719705774,NaN,0.0947037,1.67,1.6594001,1.67,1.6471538
2975,6,0.999,-0.05,1,3,3.09023230616781,0.01,1.367,1.9484041,1.83928667677647,NaN,NaN,24.6149084,1.59,16.0441211,1.59,16.3088058
2976,6,0.999,-0.05,1,3,3.09023230616781,0.05,1.367,1.9438781,1.83928667677647,NaN,NaN,24.4539791,1.628,16.4323594,1.628,16.079984
2977,7,0.999,-0.05,1,1,3.09023230616781,0.01,1.6,0.2359544,NaN,NaN,NaN,0.0035618,2.1,0.2057702,2.1,0.2405769
2978,7,0.999,-0.05,1,1,3.09023230616781,0.05,1.6,0.2156354,NaN,NaN,NaN,0.0029041,2.1,0.2009469,2.1,0.2409769
2979,7,0.999,-0.05,1,2,3.09023230616781,0.01,1.79,0.3842209,2.01974961349164,2.37328777466957,NaN,0.0962292,1.82,1.8920953,1.82,1.7500225
2980,7,0.999,-0.05,1,2,3.09023230616781,0.05,1.79,0.3692779,2.01974961349164,2.37328777466957,NaN,0.1033039,1.83,1.6988959,1.83,1.7128747
2981,7,0.999,-0.05,1,3,3.09023230616781,0.01,1.274,2.0104169,1.25208792870751,2.02909256499469,2.38379821388771,26.2271106,1.785,16.5335063,1.785,16.8406574
2982,7,0.999,-0.05,1,3,3.09023230616781,0.05,1.274,2.0231124,1.25208792870751,2.02909256499469,2.38379821388771,25.9295132,1.785,16.7385755,1.785,16.7209351
2983,8,0.999,-0.05,1,1,3.09023230616781,0.01,1.9,0.279449,NaN,NaN,NaN,0.0031409,1.9,0.2350327,1.9,0.2033369
2984,8,0.999,-0.05,1,1,3.09023230616781,0.05,1.9,0.3095286,NaN,NaN,NaN,0.0028807,1.9,0.2112417,1.9,0.2058517
2985,8,0.999,-0.05,1,2,3.09023230616781,0.01,1.47,0.5243173,2.49851401672654,NaN,NaN,0.1074946,1.57,1.6366575,1.57,1.5524068
2986,8,0.999,-0.05,1,2,3.09023230616781,0.05,2.08,0.7347739,2.49851401672654,NaN,NaN,0.0904627,1.57,1.5375839,1.57,1.5544349
2987,8,0.999,-0.05,1,3,3.09023230616781,0.01,1.475,1.9524009,1.44792498158009,2.10975135734051,2.50779203292059,25.3695044,1.54,15.2063895,1.54,15.2333886
2988,8,0.999,-0.05,1,3,3.09023230616781,0.05,1.475,2.0077375,1.44792498158009,2.10975135734051,2.50779203292059,25.3594357,1.54,14.8645494,1.54,15.2044925
2989,9,0.999,-0.05,1,1,3.09023230616781,0.01,1.5,0.2231545,NaN,NaN,NaN,0.0031138,2.1,0.1896519,2.1,0.1880304
2990,9,0.999,-0.05,1,1,3.09023230616781,0.05,1.5,0.2190475,NaN,NaN,NaN,0.0030636,2.1,0.1869858,2.1,0.185651
2991,9,0.999,-0.05,1,2,3.09023230616781,0.01,1.56,0.4787064,1.75684620570349,2.3727063749203,2.68359662334213,0.0945794,1.55,1.519335,1.55,1.5090082
2992,9,0.999,-0.05,1,2,3.09023230616781,0.05,1.56,0.4790723,1.75684620570349,2.3727063749203,2.68359662334213,0.0740763,1.55,1.6507444,1.55,1.6066403
2993,9,0.999,-0.05,1,3,3.09023230616781,0.01,1.224,2.1221583,1.6115549473295,1.75254137349117,2.33491375423181,24.4792441,1.525,14.7897811,1.525,15.1274871
2994,9,0.999,-0.05,1,3,3.09023230616781,0.05,1.224,2.0601815,1.6115549473295,1.75254137349117,2.33491375423181,24.6313455,1.529,14.8263953,1.529,15.1853794
2995,10,0.999,-0.05,1,1,3.09023230616781,0.01,1,0.1238085,1.41579006313598,NaN,NaN,0.0055347,2,0.1830848,2,0.1973404
2996,10,0.999,-0.05,1,1,3.09023230616781,0.05,2,0.1993242,1.41579006313598,NaN,NaN,0.0055368,2,0.1838716,2,0.1796571
2997,10,0.999,-0.05,1,2,3.09023230616781,0.01,0.87,0.2516705,1.19349864574451,2.78907730326809,NaN,0.0880203,1.83,1.6298545,1.83,1.6281484
2998,10,0.999,-0.05,1,2,3.09023230616781,0.05,1.45,0.3565186,1.19349864574451,2.78907730326809,NaN,0.092753,1.83,1.6261832,1.83,1.6358723
2999,10,0.999,-0.05,1,3,3.09023230616781,0.01,0.689,1.3666259,1.21123534719479,2.05340656627632,2.30382892623516,23.9433656,1.722,15.0900875,1.722,15.2057219
3000,10,0.999,-0.05,1,3,3.09023230616781,0.05,1.069,2.0628256,1.21123534719479,2.05340656627632,2.30382892623516,23.7586816,1.722,15.1166308,1.722,15.1572212
3001,1,0.999,-0.05,2,1,3.09023230616781,0.01,1.9,0.3568079,2.15751078323461,NaN,NaN,0.0059405,1.5,0.146401,1.5,0.1461779
3002,1,0.999,-0.05,2,1,3.09023230616781,0.05,2.2,0.5479195,2.15751078323461,NaN,NaN,0.005558,1.5,0.1500512,1.5,0.1435047
3003,1,0.999,-0.05,2,2,3.09023230616781,0.01,1.98,0.6974138,2.20099437083769,NaN,NaN,0.1008675,1.08,1.1122988,1.08,1.1299825
3004,1,0.999,-0.05,2,2,3.09023230616781,0.05,2.27,0.788444,2.20099437083769,NaN,NaN,0.0803609,1.08,1.1228042,1.08,1.1169238
3005,1,0.999,-0.05,2,3,3.09023230616781,0.01,1.274,1.9890821,1.25425151762501,1.51005508356263,2.21761409017098,23.8105493,1.08,11.2220622,1.08,11.1486161
3006,1,0.999,-0.05,2,3,3.09023230616781,0.05,1.274,1.8834683,1.25425151762501,1.51005508356263,2.21761409017098,23.459893,1.086,11.259048,1.086,11.5970292
3007,2,0.999,-0.05,2,1,3.09023230616781,0.01,3.1,0.5701048,2.11847919646657,NaN,NaN,0.0049559,1.7,0.1656473,1.6,0.1574237
3008,2,0.999,-0.05,2,1,3.09023230616781,0.05,3.1,0.5598833,2.11847919646657,NaN,NaN,0.0049979,1.7,0.1758743,1.7,0.1589425
3009,2,0.999,-0.05,2,2,3.09023230616781,0.01,2.1,0.6997511,2.18934960191532,NaN,NaN,0.0833519,1.2,1.2525702,1.2,1.2645648
3010,2,0.999,-0.05,2,2,3.09023230616781,0.05,2.1,0.7150196,2.18934960191532,NaN,NaN,0.0986503,1.2,1.2572862,1.2,1.2580466
3011,2,0.999,-0.05,2,3,3.09023230616781,0.01,1.269,1.9217364,1.22077398652502,1.48204975433793,2.21126674639103,24.2529344,1.195,12.7809517,1.195,13.0060882
3012,2,0.999,-0.05,2,3,3.09023230616781,0.05,1.269,1.9368983,1.22077398652502,1.48204975433793,2.21126674639103,24.3658013,1.203,12.5642476,1.195,12.7177948
3013,3,0.999,-0.05,2,1,3.09023230616781,0.01,1.9,0.3825536,2.03854176011655,NaN,NaN,0.0062311,1.6,0.1523786,1.6,0.150013
3014,3,0.999,-0.05,2,1,3.09023230616781,0.05,1.9,0.3820884,2.03854176011655,NaN,NaN,0.0050812,1.6,0.1517653,1.6,0.1550142
3015,3,0.999,-0.05,2,2,3.09023230616781,0.01,1.91,0.6931424,2.15975610845656,NaN,NaN,0.0899083,1.18,1.1797339,1.18,1.1685601
3016,3,0.999,-0.05,2,2,3.09023230616781,0.05,1.91,0.7032276,2.15975610845656,NaN,NaN,0.0777607,1.54,1.4067769,1.2,1.2084108
3017,3,0.999,-0.05,2,3,3.09023230616781,0.01,1.163,1.9546773,2.16700086206591,NaN,NaN,24.1278082,1.179,11.8358402,1.169,11.8970683
3018,3,0.999,-0.05,2,3,3.09023230616781,0.05,1.163,1.9900414,2.16700086206591,NaN,NaN,23.7741624,1.541,13.7099193,1.194,11.8501946
3019,4,0.999,-0.05,2,1,3.09023230616781,0.01,0.7,0.1341584,NaN,NaN,NaN,0.0026323,1.5,0.144093,1.5,0.1441528
3020,4,0.999,-0.05,2,1,3.09023230616781,0.05,1.5,0.2091804,NaN,NaN,NaN,0.0026565,1.5,0.1460804,1.5,0.145303
3021,4,0.999,-0.05,2,2,3.09023230616781,0.01,0.7,0.1679207,NaN,NaN,NaN,0.0987022,1.27,1.2209326,1.27,1.2367118
3022,4,0.999,-0.05,2,2,3.09023230616781,0.05,1.6,0.3993184,NaN,NaN,NaN,0.087939,1.31,1.2616101,1.3,1.2404714
3023,4,0.999,-0.05,2,3,3.09023230616781,0.01,0.706,1.3362398,0.936454607395604,2.25727287481651,NaN,25.3609121,1.266,12.6012062,1.266,12.2448377
3024,4,0.999,-0.05,2,3,3.09023230616781,0.05,0.706,1.3435886,0.936454607395604,2.25727287481651,NaN,25.1111362,1.27,12.2821013,1.27,12.7950741
3025,5,0.999,-0.05,2,1,3.09023230616781,0.01,1.7,0.3310913,NaN,NaN,NaN,0.0026088,1.6,0.1587522,1.6,0.1546913
3026,5,0.999,-0.05,2,1,3.09023230616781,0.05,2.1,0.4181547,NaN,NaN,NaN,0.0026314,1.6,0.1580713,1.6,0.1588838
3027,5,0.999,-0.05,2,2,3.09023230616781,0.01,1.73,0.6996328,NaN,NaN,NaN,0.074981,1.25,1.2910996,1.24,1.2853347
3028,5,0.999,-0.05,2,2,3.09023230616781,0.05,1.73,0.7000835,NaN,NaN,NaN,0.0801383,1.28,1.3114526,1.25,1.2916858
3029,5,0.999,-0.05,2,3,3.09023230616781,0.01,1.25,2.0302783,1.23660519364319,1.72218175166083,2.89072972200973,24.4186229,1.213,12.8648831,1.213,13.0447376
3030,5,0.999,-0.05,2,3,3.09023230616781,0.05,1.25,2.0306938,1.23660519364319,1.72218175166083,2.89072972200973,24.2043917,1.213,12.6130631,1.213,12.8854761
3031,6,0.999,-0.05,2,1,3.09023230616781,0.01,1.9,0.3275009,NaN,NaN,NaN,0.0029591,1.4,0.142246,1.4,0.1365504
3032,6,0.999,-0.05,2,1,3.09023230616781,0.05,2.3,0.4544139,NaN,NaN,NaN,0.0034276,2.1,0.1751243,2.1,0.1770973
3033,6,0.999,-0.05,2,2,3.09023230616781,0.01,1.94,0.9178286,2.49921023041337,NaN,NaN,0.0859684,1.13,1.1436848,1.13,1.1348465
3034,6,0.999,-0.05,2,2,3.09023230616781,0.05,1.94,0.9181952,2.49921023041337,NaN,NaN,0.0715437,1.32,1.2534763,1.32,1.402482
3035,6,0.999,-0.05,2,3,3.09023230616781,0.01,1.601,2.6516205,2.1092908626832,2.51680210705884,NaN,23.60019,1.137,11.4136264,1.126,11.6382902
3036,6,0.999,-0.05,2,3,3.09023230616781,0.05,1.601,2.5217389,2.1092908626832,2.51680210705884,NaN,23.5158352,1.285,12.2426491,1.261,12.1485404
3037,7,0.999,-0.05,2,1,3.09023230616781,0.01,1.6,0.2120764,NaN,NaN,NaN,0.0028553,1.5,0.1516648,1.5,0.1489495
3038,7,0.999,-0.05,2,1,3.09023230616781,0.05,2.3,0.3308861,NaN,NaN,NaN,0.0028745,1.5,0.1518774,1.5,0.1549406
3039,7,0.999,-0.05,2,2,3.09023230616781,0.01,1.6,0.7196559,2.50366585416052,NaN,NaN,0.0812767,1.22,1.2704058,1.22,1.2731524
3040,7,0.999,-0.05,2,2,3.09023230616781,0.05,1.6,0.7268681,2.50366585416052,NaN,NaN,0.0981202,1.22,1.2664735,1.22,1.2725932
3041,7,0.999,-0.05,2,3,3.09023230616781,0.01,1.187,2.1209928,1.59503149859999,1.85310195112641,2.53312657455352,24.6589813,1.218,12.7826344,1.218,12.7551201
3042,7,0.999,-0.05,2,3,3.09023230616781,0.05,1.187,2.1412389,1.59503149859999,1.85310195112641,2.53312657455352,24.7084621,1.218,13.0204259,1.218,12.6838876
3043,8,0.999,-0.05,2,1,3.09023230616781,0.01,2.1,0.3240466,NaN,NaN,NaN,0.0030783,1.5,0.1447259,1.4,0.1379781
3044,8,0.999,-0.05,2,1,3.09023230616781,0.05,2.3,0.50965,NaN,NaN,NaN,0.0028719,2.5,0.1916543,2.5,0.195878
3045,8,0.999,-0.05,2,2,3.09023230616781,0.01,2.19,0.9310434,2.4164672804326,NaN,NaN,0.0737001,1.14,1.172948,1.14,1.1594103
3046,8,0.999,-0.05,2,2,3.09023230616781,0.05,2.47,1.0193457,2.4164672804326,NaN,NaN,0.080134,1.15,1.1855766,1.15,1.1765193
3047,8,0.999,-0.05,2,3,3.09023230616781,0.01,1.667,2.3947101,1.17063237480935,1.75441261000888,2.41840755274211,23.6059088,1.129,11.5684473,1.129,11.8970842
3048,8,0.999,-0.05,2,3,3.09023230616781,0.05,1.667,2.3660378,1.17063237480935,1.75441261000888,2.41840755274211,23.7524385,1.169,11.7700819,1.141,11.7607931
3049,9,0.999,-0.05,2,1,3.09023230616781,0.01,2.3,0.4309763,2.39202127846526,NaN,NaN,0.0046671,1.5,0.1596304,1.5,0.1487894
3050,9,0.999,-0.05,2,1,3.09023230616781,0.05,2.3,0.4194038,2.39202127846526,NaN,NaN,0.0050679,1.5,0.1517519,1.5,0.1474147
3051,9,0.999,-0.05,2,2,3.09023230616781,0.01,1.72,0.7052298,2.42144384607112,NaN,NaN,0.0857831,1.18,1.2366874,1.18,1.2335484
3052,9,0.999,-0.05,2,2,3.09023230616781,0.05,1.72,0.6912378,2.42144384607112,NaN,NaN,0.0888719,1.22,1.2727626,1.22,1.2545188
3053,9,0.999,-0.05,2,3,3.09023230616781,0.01,1.178,2.1501075,1.68480157252078,2.41121002824175,NaN,24.3332483,1.137,11.9981402,1.137,12.2564596
3054,9,0.999,-0.05,2,3,3.09023230616781,0.05,1.178,1.9775216,1.68480157252078,2.41121002824175,NaN,24.4196461,1.222,12.3999092,1.222,12.3834205
3055,10,0.999,-0.05,2,1,3.09023230616781,0.01,0.9,0.097661,NaN,NaN,NaN,0.0025273,3.1,0.2399981,3.1,0.2344901
3056,10,0.999,-0.05,2,1,3.09023230616781,0.05,0.9,0.0860559,NaN,NaN,NaN,0.002585,3.1,0.2353854,3.1,0.2451297
3057,10,0.999,-0.05,2,2,3.09023230616781,0.01,0.92,0.2548244,1.64491289775232,NaN,NaN,0.0906527,2.03,1.8409701,2.03,1.817179
3058,10,0.999,-0.05,2,2,3.09023230616781,0.05,0.92,0.2502068,1.64491289775232,NaN,NaN,0.0831017,2.03,1.8367755,2.03,1.8422022
3059,10,0.999,-0.05,2,3,3.09023230616781,0.01,0.877,1.2933333,1.25604258102586,1.59233754991175,2.29143720902732,24.0773864,1.929,16.9351463,1.929,16.9034298
3060,10,0.999,-0.05,2,3,3.09023230616781,0.05,0.877,1.281094,1.25604258102586,1.59233754991175,2.29143720902732,24.2087035,1.929,17.2738502,1.929,16.9248924
3061,1,0.999,0,0.5,1,3.09023230616781,0.01,1,0.0995855,NaN,NaN,NaN,0.0028475,3.1,0.2441576,3.1,0.2403358
3062,1,0.999,0,0.5,1,3.09023230616781,0.05,1.4,0.2570647,NaN,NaN,NaN,0.002681,3.1,0.2433172,3.1,0.2468354
3063,1,0.999,0,0.5,2,3.09023230616781,0.01,1.08,0.2458486,1.41398515443369,2.35732726167172,NaN,0.0763815,3.08,2.2219633,3.08,2.226578
3064,1,0.999,0,0.5,2,3.09023230616781,0.05,1.08,0.2542745,1.41398515443369,2.35732726167172,NaN,0.0809293,3.08,2.2452137,3.08,2.2291672
3065,1,0.999,0,0.5,3,3.09023230616781,0.01,0.866,1.2927044,1.39265331562393,1.94450021439142,2.38400103190124,24.1058122,3.076,18.7510063,3.076,18.7695894
3066,1,0.999,0,0.5,3,3.09023230616781,0.05,1.449,1.9006654,1.39265331562393,1.94450021439142,2.38400103190124,24.0628853,3.076,18.9358015,3.076,18.4852868
3067,2,0.999,0,0.5,1,3.09023230616781,0.01,0.9,0.1028015,NaN,NaN,NaN,0.0027049,3.1,0.249369,3.1,0.2511122
3068,2,0.999,0,0.5,1,3.09023230616781,0.05,1.4,0.2109052,NaN,NaN,NaN,0.0025247,3.1,0.245415,3.1,0.2450205
3069,2,0.999,0,0.5,2,3.09023230616781,0.01,1.39,0.3654243,1.62297650273442,2.40520673608549,NaN,0.0851376,3.14,2.2370771,3.14,2.261454
3070,2,0.999,0,0.5,2,3.09023230616781,0.05,1.39,0.3897234,1.62297650273442,2.40520673608549,NaN,0.0795835,3.14,2.280167,3.14,2.383718
3071,2,0.999,0,0.5,3,3.09023230616781,0.01,1.403,1.9208383,1.42943191684718,1.610239311166,1.7544301399436,24.3860554,3.139,18.5111342,3.139,18.6391765
3072,2,0.999,0,0.5,3,3.09023230616781,0.05,1.403,1.9420915,1.42943191684718,1.610239311166,1.7544301399436,24.2088428,3.139,18.517248,3.139,18.5661833
3073,3,0.999,0,0.5,1,3.09023230616781,0.01,0.9,0.0953846,1.54027106336632,NaN,NaN,0.0074401,3.2,0.2466908,3.2,0.2445468
3074,3,0.999,0,0.5,1,3.09023230616781,0.05,1.5,0.2896203,1.54027106336632,NaN,NaN,0.0062229,3.2,0.246722,3.2,0.2485507
3075,3,0.999,0,0.5,2,3.09023230616781,0.01,1.54,0.405248,1.46115711452283,2.20814052292887,2.47176681057463,0.0960624,3.19,2.4429786,3.19,2.3348526
3076,3,0.999,0,0.5,2,3.09023230616781,0.05,1.54,0.4086807,1.46115711452283,2.20814052292887,2.47176681057463,0.0804799,3.19,2.2533266,3.19,2.3073274
3077,3,0.999,0,0.5,3,3.09023230616781,0.01,1.472,1.9200309,1.46348964221355,2.02294108773017,2.22705716793023,24.2491208,3.195,18.3814962,3.195,18.713694
3078,3,0.999,0,0.5,3,3.09023230616781,0.05,1.472,1.9255333,1.46348964221355,2.02294108773017,2.22705716793023,24.4279769,3.195,18.3508686,3.195,18.6584879
3079,4,0.999,0,0.5,1,3.09023230616781,0.01,1.5,0.2422261,NaN,NaN,NaN,0.0028505,2.1,0.2187952,2.1,0.2070107
3080,4,0.999,0,0.5,1,3.09023230616781,0.05,1.5,0.1928862,NaN,NaN,NaN,0.0028132,2.1,0.2004707,2.1,0.1941672
3081,4,0.999,0,0.5,2,3.09023230616781,0.01,1.53,0.4692306,2.5957720989608,NaN,NaN,0.0971745,1.73,1.6634838,1.73,1.654888
3082,4,0.999,0,0.5,2,3.09023230616781,0.05,1.53,0.4681302,2.5957720989608,NaN,NaN,0.0861555,1.73,1.6598783,1.73,1.6674299
3083,4,0.999,0,0.5,3,3.09023230616781,0.01,1.537,1.91831,1.53725536593893,1.85472975232404,2.5958363021089,24.0471696,1.556,15.299867,1.556,15.6678426
3084,4,0.999,0,0.5,3,3.09023230616781,0.05,1.537,1.9552018,1.53725536593893,1.85472975232404,2.5958363021089,23.6405212,1.556,15.2698585,1.556,15.3276027
3085,5,0.999,0,0.5,1,3.09023230616781,0.01,1.1,0.0956403,1.77702707919115,NaN,NaN,0.0061191,3.3,0.2581518,3.3,0.2627283
3086,5,0.999,0,0.5,1,3.09023230616781,0.05,1.1,0.086902,1.77702707919115,NaN,NaN,0.0057392,3.3,0.2648831,3.3,0.2581392
3087,5,0.999,0,0.5,2,3.09023230616781,0.01,0.98,0.2517599,1.18371930397692,1.70872442860445,1.88325669316546,0.0836473,3.26,2.2120343,3.26,2.2472192
3088,5,0.999,0,0.5,2,3.09023230616781,0.05,1.84,0.488208,1.18371930397692,1.70872442860445,1.88325669316546,0.0998201,3.26,2.3548114,3.26,2.2564608
3089,5,0.999,0,0.5,3,3.09023230616781,0.01,0.807,1.3115917,1.13974975517787,1.70661991417155,1.91142945183272,24.6338064,3.255,18.0831281,3.255,18.3395558
3090,5,0.999,0,0.5,3,3.09023230616781,0.05,1.171,1.687357,1.13974975517787,1.70661991417155,1.91142945183272,27.068739,3.255,21.38531,3.255,21.0542108
3091,6,0.999,0,0.5,1,3.09023230616781,0.01,1.1,0.1024638,NaN,NaN,NaN,0.0028146,3.3,0.2858047,3.3,0.266423
3092,6,0.999,0,0.5,1,3.09023230616781,0.05,1.1,0.1046024,NaN,NaN,NaN,0.0030592,3.3,0.280759,3.3,0.2850467
3093,6,0.999,0,0.5,2,3.09023230616781,0.01,1.12,0.2759769,2.3938580830969,2.80637487206155,NaN,0.0866343,3.34,2.5336355,3.34,2.3119695
3094,6,0.999,0,0.5,2,3.09023230616781,0.05,1.12,0.2478466,2.3938580830969,2.80637487206155,NaN,0.0945992,3.34,2.2960876,3.34,2.2943006
3095,6,0.999,0,0.5,3,3.09023230616781,0.01,1.082,1.4065423,1.21266949160073,1.76945461277361,2.02239167811237,24.7610528,3.338,19.1993378,3.338,19.437863
3096,6,0.999,0,0.5,3,3.09023230616781,0.05,1.082,1.3008257,1.21266949160073,1.76945461277361,2.02239167811237,24.6603868,3.338,19.2463391,3.338,19.4086194
3097,7,0.999,0,0.5,1,3.09023230616781,0.01,1.7,0.1926946,NaN,NaN,NaN,0.0028195,2.1,0.18937,2.1,0.1955385
3098,7,0.999,0,0.5,1,3.09023230616781,0.05,2.1,0.3227855,NaN,NaN,NaN,0.0028106,2.1,0.1944901,2.1,0.1873758
3099,7,0.999,0,0.5,2,3.09023230616781,0.01,1.77,0.4764797,2.40943998376086,2.81596306753127,NaN,0.0726126,1.77,1.8016947,1.77,1.8020977
3100,7,0.999,0,0.5,2,3.09023230616781,0.05,1.77,0.4926578,2.40943998376086,2.81596306753127,NaN,0.0797843,1.77,1.8120039,1.77,1.7393155
3101,7,0.999,0,0.5,3,3.09023230616781,0.01,0.965,1.3148699,1.28881231470773,2.09427760141217,2.41055706857411,24.1018077,1.732,16.441872,1.732,16.2814719
3102,7,0.999,0,0.5,3,3.09023230616781,0.05,0.965,1.2975728,1.28881231470773,2.09427760141217,2.41055706857411,24.4930316,1.732,16.1466188,1.733,16.5056218
3103,8,0.999,0,0.5,1,3.09023230616781,0.01,1,0.0943446,NaN,NaN,NaN,0.0027147,2.1,0.190897,2.1,0.1909004
3104,8,0.999,0,0.5,1,3.09023230616781,0.05,1.8,0.1798529,NaN,NaN,NaN,0.0028025,2.1,0.196639,2.1,0.1868204
3105,8,0.999,0,0.5,2,3.09023230616781,0.01,1.04,0.2393709,NaN,NaN,NaN,0.0876321,1.78,1.6531112,1.78,1.6441543
3106,8,0.999,0,0.5,2,3.09023230616781,0.05,1.04,0.2506795,NaN,NaN,NaN,0.0824441,1.78,1.6228027,1.78,1.6565709
3107,8,0.999,0,0.5,3,3.09023230616781,0.01,1.042,1.3967281,1.1289886109806,1.85547436307416,2.40587215208007,24.9360252,1.755,15.8155428,1.755,16.1137988
3108,8,0.999,0,0.5,3,3.09023230616781,0.05,1.042,1.3201707,1.1289886109806,1.85547436307416,2.40587215208007,25.0954483,1.755,15.8082871,1.755,16.0550513
3109,9,0.999,0,0.5,1,3.09023230616781,0.01,1.1,0.096488,1.82125702706366,NaN,NaN,0.00452,3.3,0.2481997,3.3,0.2461089
3110,9,0.999,0,0.5,1,3.09023230616781,0.05,1.7,0.3041497,1.82125702706366,NaN,NaN,0.004605,3.3,0.2450104,3.3,0.2405602
3111,9,0.999,0,0.5,2,3.09023230616781,0.01,1.7,0.4095268,1.93341033863097,2.65067100085417,NaN,0.0984541,3.28,2.2644607,3.28,2.2010929
3112,9,0.999,0,0.5,2,3.09023230616781,0.05,1.7,0.3993258,1.93341033863097,2.65067100085417,NaN,0.0896357,3.28,2.2379772,3.28,2.2175568
3113,9,0.999,0,0.5,3,3.09023230616781,0.01,1.1,1.2983036,1.37830987213012,1.73164482988397,1.9640429166665,23.9260382,3.276,18.3810328,3.276,18.6437164
3114,9,0.999,0,0.5,3,3.09023230616781,0.05,1.703,1.5668085,1.37830987213012,1.73164482988397,1.9640429166665,24.0380965,3.276,19.8246787,3.276,18.6812479
3115,10,0.999,0,0.5,1,3.09023230616781,0.01,0.9,0.0937612,NaN,NaN,NaN,0.0025914,3.1,0.2403181,3.1,0.2391814
3116,10,0.999,0,0.5,1,3.09023230616781,0.05,0.9,0.0864102,NaN,NaN,NaN,0.0025365,3.1,0.2472098,3.1,0.2407249
3117,10,0.999,0,0.5,2,3.09023230616781,0.01,0.88,0.2447511,2.01945020087745,2.46740264816365,NaN,0.0739215,2,1.8478142,2,1.8584836
3118,10,0.999,0,0.5,2,3.09023230616781,0.05,1.51,0.4624033,2.01945020087745,2.46740264816365,NaN,0.0706363,2,1.870651,2,1.9228782
3119,10,0.999,0,0.5,3,3.09023230616781,0.01,0.885,1.3430965,1.0966199486264,1.47465722678965,2.00226631745701,24.2172978,1.991,17.4743451,1.991,17.9646632
3120,10,0.999,0,0.5,3,3.09023230616781,0.05,0.885,1.2634564,1.0966199486264,1.47465722678965,2.00226631745701,23.9023936,1.991,17.637063,1.991,17.766208
3121,1,0.999,0,1,1,3.09023230616781,0.01,1,0.1065977,NaN,NaN,NaN,0.0025517,2.1,0.1961927,2.1,0.1953406
3122,1,0.999,0,1,1,3.09023230616781,0.05,1,0.0984275,NaN,NaN,NaN,0.0025865,2.1,0.1962434,2.1,0.195081
3123,1,0.999,0,1,2,3.09023230616781,0.01,1.63,0.4871441,2.474311343002,NaN,NaN,0.0809951,1.77,1.7275717,1.77,1.6957686
3124,1,0.999,0,1,2,3.09023230616781,0.05,1.63,0.4828482,2.474311343002,NaN,NaN,0.0878929,1.82,1.7028147,1.82,1.7110851
3125,1,0.999,0,1,3,3.09023230616781,0.01,1.277,2.1001821,1.25831224682253,1.76164053677894,2.1531318449652,25.5749763,1.743,16.4697426,1.743,16.7628777
3126,1,0.999,0,1,3,3.09023230616781,0.05,1.277,1.9425078,1.25831224682253,1.76164053677894,2.1531318449652,25.1224147,1.743,16.4371488,1.743,16.658094
3127,2,0.999,0,1,1,3.09023230616781,0.01,1,0.1052606,NaN,NaN,NaN,0.0025162,1.9,0.1869354,1.9,0.1787766
3128,2,0.999,0,1,1,3.09023230616781,0.05,1,0.1162015,NaN,NaN,NaN,0.0028039,1.9,0.1775127,1.9,0.1775858
3129,2,0.999,0,1,2,3.09023230616781,0.01,0.98,0.2446725,1.52109670881161,1.98473380439186,NaN,0.0743705,1.5,1.4825496,1.5,1.5003621
3130,2,0.999,0,1,2,3.09023230616781,0.05,1.55,0.3536979,1.52109670881161,1.98473380439186,NaN,0.0803659,1.5,1.6798634,1.5,1.498906
3131,2,0.999,0,1,3,3.09023230616781,0.01,1.223,1.9677048,1.50771779621932,1.95766525844391,2.43870456119665,24.4605238,1.481,14.6002584,1.481,14.8457052
3132,2,0.999,0,1,3,3.09023230616781,0.05,1.223,1.9533803,1.50771779621932,1.95766525844391,2.43870456119665,24.3446348,1.481,14.5858783,1.481,14.6137879
3133,3,0.999,0,1,1,3.09023230616781,0.01,1.6,0.2270734,NaN,NaN,NaN,0.0030207,1.5,0.1536097,1.5,0.1635406
3134,3,0.999,0,1,1,3.09023230616781,0.05,1.6,0.220358,NaN,NaN,NaN,0.0028651,1.6,0.1639889,1.5,0.1519121
3135,3,0.999,0,1,2,3.09023230616781,0.01,1.29,0.4818834,1.78852901217234,2.64218891705509,NaN,0.0824561,1.26,1.3074181,1.26,1.3924369
3136,3,0.999,0,1,2,3.09023230616781,0.05,1.29,0.5160688,1.78852901217234,2.64218891705509,NaN,0.0930398,1.27,1.3649572,1.27,1.369423
3137,3,0.999,0,1,3,3.09023230616781,0.01,1.291,1.9750969,1.67363550070695,2.64966549755108,NaN,24.9427212,1.201,12.6748076,1.201,12.7583919
3138,3,0.999,0,1,3,3.09023230616781,0.05,1.291,1.9592566,1.67363550070695,2.64966549755108,NaN,25.0502399,1.274,13.5098449,1.274,13.096817
3139,4,0.999,0,1,1,3.09023230616781,0.01,1.9,0.3082601,1.20572402407078,NaN,NaN,0.0052044,3.2,0.2457928,3.2,0.2473897
3140,4,0.999,0,1,1,3.09023230616781,0.05,1.9,0.2897327,1.20572402407078,NaN,NaN,0.0049424,3.2,0.2393867,3.2,0.2404174
3141,4,0.999,0,1,2,3.09023230616781,0.01,1.24,0.4672551,1.18395642488992,2.52253174355076,NaN,0.0849368,1.97,1.7904385,1.97,1.8552402
3142,4,0.999,0,1,2,3.09023230616781,0.05,1.94,0.7058398,1.18395642488992,2.52253174355076,NaN,0.085173,1.97,1.8002141,1.97,1.8240577
3143,4,0.999,0,1,3,3.09023230616781,0.01,0.771,1.3102444,1.17252400681144,1.65002383385128,2.18890266021803,25.0342074,1.938,17.3506948,1.938,16.9595472
3144,4,0.999,0,1,3,3.09023230616781,0.05,0.771,1.3074288,1.17252400681144,1.65002383385128,2.18890266021803,24.8114813,1.938,17.3258993,1.938,17.0778928
3145,5,0.999,0,1,1,3.09023230616781,0.01,2.1,0.3263562,2.44614423704684,NaN,NaN,0.0051501,1.7,0.1640692,1.7,0.1652526
3146,5,0.999,0,1,1,3.09023230616781,0.05,2.1,0.3117878,2.44614423704684,NaN,NaN,0.0049456,1.7,0.1678241,1.7,0.162961
3147,5,0.999,0,1,2,3.09023230616781,0.01,1.35,0.498501,1.47232966470349,2.50256416701331,NaN,0.0864867,1.3,1.3372198,1.3,1.333435
3148,5,0.999,0,1,2,3.09023230616781,0.05,2.16,0.6945198,1.47232966470349,2.50256416701331,NaN,0.0838413,1.3,1.3429475,1.3,1.348032
3149,5,0.999,0,1,3,3.09023230616781,0.01,1.346,1.9913373,1.42371864353817,2.18350769346739,2.50113251960813,24.7325487,1.286,13.7006796,1.286,13.226425
3150,5,0.999,0,1,3,3.09023230616781,0.05,1.346,2.003461,1.42371864353817,2.18350769346739,2.50113251960813,24.3160554,1.286,13.4797522,1.286,13.7072736
3151,6,0.999,0,1,1,3.09023230616781,0.01,1.4,0.2035709,NaN,NaN,NaN,0.0029498,1.6,0.1618488,1.6,0.1605496
3152,6,0.999,0,1,1,3.09023230616781,0.05,2.2,0.3155762,NaN,NaN,NaN,0.0030092,1.6,0.1606889,1.6,0.1627011
3153,6,0.999,0,1,2,3.09023230616781,0.01,1.47,0.4802386,NaN,NaN,NaN,0.0936694,1.33,1.3459162,1.33,1.3699702
3154,6,0.999,0,1,2,3.09023230616781,0.05,1.47,0.4755979,NaN,NaN,NaN,0.0895195,1.33,1.3629431,1.33,1.3309088
3155,6,0.999,0,1,3,3.09023230616781,0.01,1.146,1.9559981,1.44793961241242,1.70834153005386,2.31200088161643,23.1011191,1.297,13.5178378,1.297,13.5580847
3156,6,0.999,0,1,3,3.09023230616781,0.05,1.146,2.0749956,1.44793961241242,1.70834153005386,2.31200088161643,23.1389913,1.297,13.3069856,1.297,13.6548269
3157,7,0.999,0,1,1,3.09023230616781,0.01,1.5,0.1954635,NaN,NaN,NaN,0.0024937,2,0.1938048,2,0.1922248
3158,7,0.999,0,1,1,3.09023230616781,0.05,1.5,0.1857509,NaN,NaN,NaN,0.0036319,2.1,0.201482,2.1,0.2064596
3159,7,0.999,0,1,2,3.09023230616781,0.01,1.49,0.4920264,2.4106477393815,NaN,NaN,0.0872179,1.66,1.6172417,1.66,1.6312507
3160,7,0.999,0,1,2,3.09023230616781,0.05,1.49,0.4814237,2.4106477393815,NaN,NaN,0.0816314,1.66,1.6106606,1.66,1.6773286
3161,7,0.999,0,1,3,3.09023230616781,0.01,1.267,2.142928,0.777477830669085,1.99726201590595,2.40787294727849,24.784766,1.648,15.7726827,1.648,16.0816499
3162,7,0.999,0,1,3,3.09023230616781,0.05,1.267,2.0264002,0.777477830669085,1.99726201590595,2.40787294727849,24.4625328,1.648,15.6328515,1.648,15.8755417
3163,8,0.999,0,1,1,3.09023230616781,0.01,1.4,0.2326422,NaN,NaN,NaN,0.0029587,1.6,0.1905515,1.6,0.1589913
3164,8,0.999,0,1,1,3.09023230616781,0.05,1.4,0.2212463,NaN,NaN,NaN,0.0028715,1.7,0.1829653,1.7,0.1707507
3165,8,0.999,0,1,2,3.09023230616781,0.01,1.42,0.4932564,2.63431606117939,NaN,NaN,0.0882151,1.33,1.4036129,1.33,1.3383444
3166,8,0.999,0,1,2,3.09023230616781,0.05,1.42,0.4818325,2.63431606117939,NaN,NaN,0.0940835,1.34,1.3999484,1.34,1.3462253
3167,8,0.999,0,1,3,3.09023230616781,0.01,1.427,1.9486463,1.68620764558507,2.2663238674241,2.59891915408812,23.3078004,1.271,13.0260606,1.264,12.995571
3168,8,0.999,0,1,3,3.09023230616781,0.05,1.427,1.9343025,1.68620764558507,2.2663238674241,2.59891915408812,23.7338679,1.285,13.0598323,1.278,13.1030843
3169,9,0.999,0,1,1,3.09023230616781,0.01,1.6,0.1903281,NaN,NaN,NaN,0.0028042,1.7,0.1716147,1.7,0.1694838
3170,9,0.999,0,1,1,3.09023230616781,0.05,2.5,0.4595592,NaN,NaN,NaN,0.0028271,1.7,0.163017,1.7,0.1656028
3171,9,0.999,0,1,2,3.09023230616781,0.01,1.58,0.4738608,2.54046186243881,NaN,NaN,0.0900696,1.5,1.4782336,1.5,1.4830568
3172,9,0.999,0,1,2,3.09023230616781,0.05,1.58,0.470875,2.54046186243881,NaN,NaN,0.082133,1.51,1.4624553,1.51,1.4731319
3173,9,0.999,0,1,3,3.09023230616781,0.01,1.171,1.993705,1.12498394065889,2.31073237622264,NaN,24.4586607,1.448,14.0601866,1.448,14.0748639
3174,9,0.999,0,1,3,3.09023230616781,0.05,1.171,2.0061283,1.12498394065889,2.31073237622264,NaN,25.0635103,1.477,14.1885952,1.448,14.1036512
3175,10,0.999,0,1,1,3.09023230616781,0.01,1.6,0.2091377,NaN,NaN,NaN,0.002744,1.8,0.1715385,1.8,0.1682474
3176,10,0.999,0,1,1,3.09023230616781,0.05,2.2,0.4366083,NaN,NaN,NaN,0.002835,1.8,0.1685913,1.8,0.1941424
3177,10,0.999,0,1,2,3.09023230616781,0.01,1.47,0.5021959,2.83196498990356,NaN,NaN,0.0959482,1.47,1.4433945,1.47,1.4683141
3178,10,0.999,0,1,2,3.09023230616781,0.05,1.47,0.4721787,2.83196498990356,NaN,NaN,0.0837869,1.47,1.4604308,1.47,1.4446337
3179,10,0.999,0,1,3,3.09023230616781,0.01,0.805,1.3059317,1.44400501199815,2.25515755198156,NaN,24.4486816,1.466,14.2870719,1.466,14.6376749
3180,10,0.999,0,1,3,3.09023230616781,0.05,0.805,1.2934913,1.44400501199815,2.25515755198156,NaN,24.3677763,1.466,14.95825,1.466,14.224673
3181,1,0.999,0,2,1,3.09023230616781,0.01,1.6,0.1913166,NaN,NaN,NaN,0.0025762,1.6,0.1582407,1.6,0.1540571
3182,1,0.999,0,2,1,3.09023230616781,0.05,1.6,0.1956195,NaN,NaN,NaN,0.0028701,1.6,0.1602167,1.6,0.1616798
3183,1,0.999,0,2,2,3.09023230616781,0.01,1.67,0.4682576,2.24649454167591,2.69307098036489,NaN,0.0956097,1.42,1.4078497,1.42,1.418074
3184,1,0.999,0,2,2,3.09023230616781,0.05,1.67,0.4617423,2.24649454167591,2.69307098036489,NaN,0.0933329,1.42,1.4210148,1.42,1.4139298
3185,1,0.999,0,2,3,3.09023230616781,0.01,1.673,2.6527055,1.91251898326168,2.24226297656931,2.7184895562118,24.0107253,1.4,14.7149825,1.4,13.8517338
3186,1,0.999,0,2,3,3.09023230616781,0.05,1.673,2.6501163,1.91251898326168,2.24226297656931,2.7184895562118,23.9149226,1.4,13.8359174,1.4,14.6081609
3187,2,0.999,0,2,1,3.09023230616781,0.01,1.9,0.3162385,NaN,NaN,NaN,0.0027069,1.5,0.1442585,1.5,0.1429934
3188,2,0.999,0,2,1,3.09023230616781,0.05,1.9,0.3129443,NaN,NaN,NaN,0.0028149,1.5,0.1443343,1.5,0.1469636
3189,2,0.999,0,2,2,3.09023230616781,0.01,1.62,0.7028988,2.46123787384675,NaN,NaN,0.0822553,1.19,1.2119658,1.19,1.1883823
3190,2,0.999,0,2,2,3.09023230616781,0.05,1.62,0.6889456,2.46123787384675,NaN,NaN,0.0862135,1.52,1.4111067,1.52,1.4123587
3191,2,0.999,0,2,3,3.09023230616781,0.01,1.255,2.0662618,1.58125371622168,2.46104954667277,NaN,23.5091638,1.194,12.0350553,1.194,12.2731476
3192,2,0.999,0,2,3,3.09023230616781,0.05,1.255,2.1321437,1.58125371622168,2.46104954667277,NaN,24.2363575,1.321,12.6896077,1.321,12.74028
3193,3,0.999,0,2,1,3.09023230616781,0.01,1.8,0.3739831,2.04810333787753,NaN,NaN,0.0048273,1.6,0.1552842,1.5,0.151426
3194,3,0.999,0,2,1,3.09023230616781,0.05,2.1,0.4987698,2.04810333787753,NaN,NaN,0.0049952,1.6,0.1567568,1.6,0.1596104
3195,3,0.999,0,2,2,3.09023230616781,0.01,1.81,0.703573,2.18918687447209,NaN,NaN,0.0992127,1.12,1.1534455,1.12,1.1569384
3196,3,0.999,0,2,2,3.09023230616781,0.05,1.81,0.7049807,2.18918687447209,NaN,NaN,0.088679,1.14,1.173084,1.13,1.1724595
3197,3,0.999,0,2,3,3.09023230616781,0.01,1.365,2.0365835,1.37865799894083,1.82909535248589,2.24280907145402,24.2110806,1.12,11.6069063,1.12,11.6019161
3198,3,0.999,0,2,3,3.09023230616781,0.05,1.365,1.9928614,1.37865799894083,1.82909535248589,2.24280907145402,24.1537368,1.14,11.772057,1.12,11.6569136
3199,4,0.999,0,2,1,3.09023230616781,0.01,2.1,0.433797,NaN,NaN,NaN,0.0029174,1.5,0.1466712,1.5,0.1457349
3200,4,0.999,0,2,1,3.09023230616781,0.05,2.1,0.4248449,NaN,NaN,NaN,0.0028253,1.5,0.143654,1.5,0.1441414
3201,4,0.999,0,2,2,3.09023230616781,0.01,1.76,0.7234815,2.60100791912832,NaN,NaN,0.0821367,1.26,1.2316899,1.25,1.2454487
3202,4,0.999,0,2,2,3.09023230616781,0.05,1.76,0.7051737,2.60100791912832,NaN,NaN,0.0735404,1.27,1.2516002,1.26,1.2348815
3203,4,0.999,0,2,3,3.09023230616781,0.01,1.21,1.9714134,1.2169450337145,1.85627043413012,2.59811026640974,24.4220511,1.253,12.7554146,1.246,12.1702223
3204,4,0.999,0,2,3,3.09023230616781,0.05,1.21,1.9898261,1.2169450337145,1.85627043413012,2.59811026640974,24.5159863,1.266,12.247644,1.258,12.7958013
3205,5,0.999,0,2,1,3.09023230616781,0.01,2.1,0.4523726,NaN,NaN,NaN,0.0031465,1.4,0.1468403,1.4,0.1633991
3206,5,0.999,0,2,1,3.09023230616781,0.05,2.1,0.487577,NaN,NaN,NaN,0.0030732,1.5,0.1632299,1.5,0.1466616
3207,5,0.999,0,2,2,3.09023230616781,0.01,1.75,0.746155,2.3131636056955,NaN,NaN,0.08588,1.15,1.2045415,1.15,1.1991352
3208,5,0.999,0,2,2,3.09023230616781,0.05,1.75,0.6875561,2.3131636056955,NaN,NaN,0.095226,1.16,1.2209748,1.16,1.2027889
3209,5,0.999,0,2,3,3.09023230616781,0.01,1.227,1.887961,1.21236058258889,1.94016061962597,2.33213560436238,23.4609144,1.151,12.0433159,1.151,12.1003106
3210,5,0.999,0,2,3,3.09023230616781,0.05,1.227,1.9606953,1.21236058258889,1.94016061962597,2.33213560436238,23.6273793,1.156,12.0369425,1.156,12.0603186
3211,6,0.999,0,2,1,3.09023230616781,0.01,1.8,0.3484569,NaN,NaN,NaN,0.0026394,1.5,0.1410484,1.5,0.1385278
3212,6,0.999,0,2,1,3.09023230616781,0.05,2.1,0.4665199,NaN,NaN,NaN,0.0026484,1.5,0.1445222,1.5,0.1413604
3213,6,0.999,0,2,2,3.09023230616781,0.01,1.8,0.6616285,2.77035691768522,NaN,NaN,0.0684281,1.15,1.1486993,1.14,1.1781623
3214,6,0.999,0,2,2,3.09023230616781,0.05,1.8,0.6894721,2.77035691768522,NaN,NaN,0.0744852,1.16,1.1775763,1.15,1.1692918
3215,6,0.999,0,2,3,3.09023230616781,0.01,1.122,2.0350341,1.05933996716715,1.84951377802821,2.37282505879709,24.5239456,1.148,11.6411448,1.141,11.6456169
3216,6,0.999,0,2,3,3.09023230616781,0.05,1.122,2.0317312,1.05933996716715,1.84951377802821,2.37282505879709,24.9914797,1.151,11.8371822,1.149,11.6702442
3217,7,0.999,0,2,1,3.09023230616781,0.01,0.8,0.1111017,1.28218726906061,NaN,NaN,0.0059143,1.9,0.1748022,1.9,0.178671
3218,7,0.999,0,2,1,3.09023230616781,0.05,1.2,0.2329062,1.28218726906061,NaN,NaN,0.0061617,1.9,0.1797292,1.9,0.1860178
3219,7,0.999,0,2,2,3.09023230616781,0.01,1.25,0.3659743,1.23020537945525,2.54663251047581,NaN,0.0872938,1.41,1.4178279,1.48,1.4600555
3220,7,0.999,0,2,2,3.09023230616781,0.05,1.25,0.3571704,1.23020537945525,2.54663251047581,NaN,0.075709,1.49,1.532658,1.49,1.4814116
3221,7,0.999,0,2,3,3.09023230616781,0.01,1.244,1.960624,1.22204387289873,1.50590959895195,2.51500797076826,24.139805,1.356,14.2815452,1.356,13.840913
3222,7,0.999,0,2,3,3.09023230616781,0.05,1.244,1.9299607,1.22204387289873,1.50590959895195,2.51500797076826,24.2674015,1.455,14.299254,1.457,14.6999064
3223,8,0.999,0,2,1,3.09023230616781,0.01,1.7,0.3721978,2.1984370138622,NaN,NaN,0.0044742,1.6,0.1498277,1.6,0.152905
3224,8,0.999,0,2,1,3.09023230616781,0.05,2.1,0.4951515,2.1984370138622,NaN,NaN,0.0044323,1.6,0.1552262,1.6,0.1480849
3225,8,0.999,0,2,2,3.09023230616781,0.01,1.72,0.7182191,2.24729011639229,NaN,NaN,0.0867998,1.06,1.1157821,1.05,1.1107486
3226,8,0.999,0,2,2,3.09023230616781,0.05,1.72,0.6935316,2.24729011639229,NaN,NaN,0.0852038,1.08,1.1192402,1.07,1.0985822
3227,8,0.999,0,2,3,3.09023230616781,0.01,1.339,1.9274369,2.23954896662001,NaN,NaN,23.4477367,1.066,11.0099137,1.065,11.1710409
3228,8,0.999,0,2,3,3.09023230616781,0.05,1.339,1.9776723,2.23954896662001,NaN,NaN,23.3102293,1.082,11.0783847,1.066,10.9673967
3229,9,0.999,0,2,1,3.09023230616781,0.01,1.8,0.3924559,2.37020256490617,NaN,NaN,0.0056527,1.5,0.1417694,1.5,0.1376132
3230,9,0.999,0,2,1,3.09023230616781,0.05,2.3,0.5391304,2.37020256490617,NaN,NaN,0.005473,1.5,0.1425379,1.5,0.1444972
3231,9,0.999,0,2,2,3.09023230616781,0.01,1.78,0.6150755,2.37841712531681,3.2673306911398,NaN,0.0905797,1.12,1.1213653,1.12,1.135026
3232,9,0.999,0,2,2,3.09023230616781,0.05,1.78,0.6159086,2.37841712531681,3.2673306911398,NaN,0.0973224,1.13,1.1238201,1.12,1.1245772
3233,9,0.999,0,2,3,3.09023230616781,0.01,1.24,2.0491517,1.91901003109473,2.38413481495394,3.23383159490909,25.5840648,1.107,11.1672811,1.107,11.0810944
3234,9,0.999,0,2,3,3.09023230616781,0.05,1.24,2.0485623,1.91901003109473,2.38413481495394,3.23383159490909,25.4991416,1.131,11.4665624,1.131,11.2155787
3235,10,0.999,0,2,1,3.09023230616781,0.01,1.2,0.2395478,NaN,NaN,NaN,0.0038985,1.5,0.1525295,1.4,0.1467562
3236,10,0.999,0,2,1,3.09023230616781,0.05,1.9,0.3207629,NaN,NaN,NaN,0.0039945,1.5,0.1504734,1.5,0.148451
3237,10,0.999,0,2,2,3.09023230616781,0.01,1.25,0.366959,1.42271822850309,NaN,NaN,0.0773973,1.21,1.2927923,1.21,1.2879225
3238,10,0.999,0,2,2,3.09023230616781,0.05,1.25,0.3782351,1.42271822850309,NaN,NaN,0.0845234,1.22,1.2530062,1.22,1.2538278
3239,10,0.999,0,2,3,3.09023230616781,0.01,1.221,1.9626347,1.41262364113671,1.95222627588079,NaN,24.6148435,1.212,13.2264568,1.212,12.6524335
3240,10,0.999,0,2,3,3.09023230616781,0.05,1.221,1.9635604,1.41262364113671,1.95222627588079,NaN,24.7091947,1.223,12.6738423,1.223,13.1357072
3241,1,0.999,0.05,0.5,1,3.09023230616781,0.01,1.5,0.2076048,NaN,NaN,NaN,0.0027631,2.2,0.2006706,2.2,0.2089984
3242,1,0.999,0.05,0.5,1,3.09023230616781,0.05,1.5,0.2177151,NaN,NaN,NaN,0.0027061,2.2,0.1985371,2.2,0.1932469
3243,1,0.999,0.05,0.5,2,3.09023230616781,0.01,1.48,0.4885695,1.79755574521036,2.6591526531782,NaN,0.0862271,1.6,1.5955338,1.6,1.6022369
3244,1,0.999,0.05,0.5,2,3.09023230616781,0.05,1.48,0.4814124,1.79755574521036,2.6591526531782,NaN,0.0841355,1.6,1.6082581,1.6,1.5885676
3245,1,0.999,0.05,0.5,3,3.09023230616781,0.01,1.474,1.9081176,1.54489556098396,2.18622079822299,2.65517898846293,23.9077845,1.581,15.5185232,1.581,15.9128485
3246,1,0.999,0.05,0.5,3,3.09023230616781,0.05,1.474,1.8709683,1.54489556098396,2.18622079822299,2.65517898846293,23.9464716,1.598,15.5658143,1.598,15.5157165
3247,2,0.999,0.05,0.5,1,3.09023230616781,0.01,1,0.0884609,NaN,NaN,NaN,0.0025677,3.1,0.2291919,3.1,0.2341196
3248,2,0.999,0.05,0.5,1,3.09023230616781,0.05,1,0.087431,NaN,NaN,NaN,0.0026587,3.1,0.2325488,3.1,0.2318136
3249,2,0.999,0.05,0.5,2,3.09023230616781,0.01,1.61,0.4740933,2.26259828233867,NaN,NaN,0.0798931,2,2.0182441,2,2.0013487
3250,2,0.999,0.05,0.5,2,3.09023230616781,0.05,1.61,0.5164213,2.26259828233867,NaN,NaN,0.0790328,2,1.9280255,2,1.8346863
3251,2,0.999,0.05,0.5,3,3.09023230616781,0.01,0.785,1.2776037,1.60910643046323,2.10896679416831,2.2786616214502,23.9405212,1.992,17.5809931,1.992,17.8178293
3252,2,0.999,0.05,0.5,3,3.09023230616781,0.05,0.785,1.3338589,1.60910643046323,2.10896679416831,2.2786616214502,23.8798865,1.992,17.5909214,1.992,17.684004
3253,3,0.999,0.05,0.5,1,3.09023230616781,0.01,1.2,0.2125675,2.07510870885873,NaN,NaN,0.0045858,3.3,0.2397492,3.3,0.2389775
3254,3,0.999,0.05,0.5,1,3.09023230616781,0.05,1.2,0.2119349,2.07510870885873,NaN,NaN,0.0045491,3.3,0.2345676,3.3,0.2389296
3255,3,0.999,0.05,0.5,2,3.09023230616781,0.01,1.38,0.4750209,2.04078152519646,2.7066198412242,NaN,0.0940528,1.94,2.1256594,1.94,1.8849049
3256,3,0.999,0.05,0.5,2,3.09023230616781,0.05,1.38,0.5158144,2.04078152519646,2.7066198412242,NaN,0.0899635,1.94,1.8130627,1.94,1.7494151
3257,3,0.999,0.05,0.5,3,3.09023230616781,0.01,1.253,1.9833989,2.03808719312353,2.60936198205781,NaN,23.7795493,1.831,16.3311926,1.831,16.3647734
3258,3,0.999,0.05,0.5,3,3.09023230616781,0.05,1.253,2.0501327,2.03808719312353,2.60936198205781,NaN,24.0044547,1.831,16.2168802,1.831,16.298028
3259,4,0.999,0.05,0.5,1,3.09023230616781,0.01,0.9,0.0945428,NaN,NaN,NaN,0.0034098,3.2,0.2582243,3.2,0.2500547
3260,4,0.999,0.05,0.5,1,3.09023230616781,0.05,1.2,0.2460361,NaN,NaN,NaN,0.0026228,3.2,0.2398481,3.2,0.2624955
3261,4,0.999,0.05,0.5,2,3.09023230616781,0.01,0.92,0.2504857,1.22438495743792,2.21327828724067,2.77848573884396,0.0900989,3.24,2.2321797,3.24,2.2390968
3262,4,0.999,0.05,0.5,2,3.09023230616781,0.05,1.25,0.3610711,1.22438495743792,2.21327828724067,2.77848573884396,0.0827044,3.24,2.4439154,3.24,2.4367183
3263,4,0.999,0.05,0.5,3,3.09023230616781,0.01,1.25,2.0368326,1.20688709979758,1.56959563433078,1.78314309151765,24.956323,2.104,17.5060042,2.104,17.8105762
3264,4,0.999,0.05,0.5,3,3.09023230616781,0.05,1.25,2.1227744,1.20688709979758,1.56959563433078,1.78314309151765,25.1493757,2.104,17.4415458,2.104,17.4495987
3265,5,0.999,0.05,0.5,1,3.09023230616781,0.01,1.4,0.2232045,2.25255000230313,NaN,NaN,0.0049662,3.5,0.2617639,3.5,0.2634581
3266,5,0.999,0.05,0.5,1,3.09023230616781,0.05,1.4,0.2172603,2.25255000230313,NaN,NaN,0.0050188,3.5,0.2600592,3.5,0.2531755
3267,5,0.999,0.05,0.5,2,3.09023230616781,0.01,1.45,0.3521726,1.56533256954589,2.23030634846441,NaN,0.0812723,3.45,2.5225379,3.45,2.3210736
3268,5,0.999,0.05,0.5,2,3.09023230616781,0.05,1.45,0.3563272,1.56533256954589,2.23030634846441,NaN,0.083605,3.45,2.228175,3.45,2.2259685
3269,5,0.999,0.05,0.5,3,3.09023230616781,0.01,1.456,1.8284554,1.45517738088343,1.75215948457403,2.20666748095117,24.2803484,3.452,18.0154756,3.452,18.5707697
3270,5,0.999,0.05,0.5,3,3.09023230616781,0.05,1.456,1.8428483,1.45517738088343,1.75215948457403,2.20666748095117,23.8791864,3.452,18.0658369,3.452,18.4156394
3271,6,0.999,0.05,0.5,1,3.09023230616781,0.01,1.1,0.1200946,1.28309492578244,NaN,NaN,0.0046762,3.1,0.2595623,3.1,0.2629149
3272,6,0.999,0.05,0.5,1,3.09023230616781,0.05,1.1,0.100599,1.28309492578244,NaN,NaN,0.0073695,3.1,0.3154526,3.1,0.2648743
3273,6,0.999,0.05,0.5,2,3.09023230616781,0.01,1.13,0.2376642,1.21447169155607,2.39609652523488,NaN,0.0946048,3.08,2.3751098,3.08,2.2947443
3274,6,0.999,0.05,0.5,2,3.09023230616781,0.05,1.13,0.2407158,1.21447169155607,2.39609652523488,NaN,0.0756505,3.08,2.361373,3.08,2.2954411
3275,6,0.999,0.05,0.5,3,3.09023230616781,0.01,1.019,1.3166625,1.19449723863625,2.38211036100485,NaN,24.9137404,3.075,19.0972756,3.075,19.4119481
3276,6,0.999,0.05,0.5,3,3.09023230616781,0.05,1.303,1.8536899,1.19449723863625,2.38211036100485,NaN,25.2441814,3.075,19.0587435,3.075,19.4864663
3277,7,0.999,0.05,0.5,1,3.09023230616781,0.01,1.2,0.0927654,NaN,NaN,NaN,0.0029281,3.2,0.2444368,3.2,0.2397407
3278,7,0.999,0.05,0.5,1,3.09023230616781,0.05,1.9,0.2071345,NaN,NaN,NaN,0.0024632,3.2,0.2430799,3.2,0.2423407
3279,7,0.999,0.05,0.5,2,3.09023230616781,0.01,1.25,0.3538582,1.26082148803348,2.36656650525422,NaN,0.0823432,1.91,1.800197,1.91,1.8073196
3280,7,0.999,0.05,0.5,2,3.09023230616781,0.05,1.81,0.4957609,1.26082148803348,2.36656650525422,NaN,0.0920945,1.91,1.8138813,1.91,1.7964554
3281,7,0.999,0.05,0.5,3,3.09023230616781,0.01,1.253,1.8840732,1.19231369554114,1.85904557696565,2.36442311514575,24.4527768,1.893,17.2814941,1.893,17.5555993
3282,7,0.999,0.05,0.5,3,3.09023230616781,0.05,1.253,1.898686,1.19231369554114,1.85904557696565,2.36442311514575,24.3786161,1.893,17.1633005,1.893,17.579661
3283,8,0.999,0.05,0.5,1,3.09023230616781,0.01,1.8,0.1765846,NaN,NaN,NaN,0.0025637,3.2,0.2449013,3.2,0.2419259
3284,8,0.999,0.05,0.5,1,3.09023230616781,0.05,2.2,0.3096055,NaN,NaN,NaN,0.0027481,3.2,0.2575462,3.2,0.2454547
3285,8,0.999,0.05,0.5,2,3.09023230616781,0.01,1.58,0.47902,NaN,NaN,NaN,0.0756566,2.01,1.8675962,2.01,1.8777701
3286,8,0.999,0.05,0.5,2,3.09023230616781,0.05,1.58,0.4647166,NaN,NaN,NaN,0.0701818,2.01,1.8750398,2.01,1.8680846
3287,8,0.999,0.05,0.5,3,3.09023230616781,0.01,1.257,1.9724616,1.21006389797736,2.35563065580783,2.61053543885565,24.0162587,1.932,17.5164655,1.932,17.5562761
3288,8,0.999,0.05,0.5,3,3.09023230616781,0.05,1.257,1.9673322,1.21006389797736,2.35563065580783,2.61053543885565,24.2669748,1.932,17.2751621,1.932,17.7351986
3289,9,0.999,0.05,0.5,1,3.09023230616781,0.01,1,0.1041324,2.17334970593293,NaN,NaN,0.0047522,3.6,0.2531695,3.6,0.2721612
3290,9,0.999,0.05,0.5,1,3.09023230616781,0.05,1.9,0.2080988,2.17334970593293,NaN,NaN,0.0045189,3.6,0.2502079,3.6,0.2598542
3291,9,0.999,0.05,0.5,2,3.09023230616781,0.01,1.42,0.4869539,2.24836378166324,NaN,NaN,0.084096,1.92,1.7528093,1.92,1.7554474
3292,9,0.999,0.05,0.5,2,3.09023230616781,0.05,1.42,0.4723569,2.24836378166324,NaN,NaN,0.0899353,1.92,1.7469173,1.92,1.7699026
3293,9,0.999,0.05,0.5,3,3.09023230616781,0.01,1.18,1.9660249,1.12980088962414,1.93762409194702,2.22392120361408,23.5433723,1.908,16.3756192,1.908,16.8399461
3294,9,0.999,0.05,0.5,3,3.09023230616781,0.05,1.18,1.9736897,1.12980088962414,1.93762409194702,2.22392120361408,23.3674151,1.908,16.3619315,1.908,17.1115401
3295,10,0.999,0.05,0.5,1,3.09023230616781,0.01,1,0.0925547,1.58342888590809,NaN,NaN,0.0048305,3.2,0.2501541,3.2,0.2516633
3296,10,0.999,0.05,0.5,1,3.09023230616781,0.05,1.5,0.2040381,1.58342888590809,NaN,NaN,0.0043348,3.2,0.2468762,3.2,0.2465559
3297,10,0.999,0.05,0.5,2,3.09023230616781,0.01,1.48,0.3909144,1.54207725334348,1.81697207317936,NaN,0.078523,3.2,2.2668331,3.2,2.2120348
3298,10,0.999,0.05,0.5,2,3.09023230616781,0.05,1.48,0.3758464,1.54207725334348,1.81697207317936,NaN,0.0818802,3.2,2.2157226,3.2,2.2382752
3299,10,0.999,0.05,0.5,3,3.09023230616781,0.01,1.487,1.8674709,1.51317406433307,1.82608030040253,2.04357226003688,23.698456,3.203,18.516419,3.203,18.7217649
3300,10,0.999,0.05,0.5,3,3.09023230616781,0.05,1.487,1.8690685,1.51317406433307,1.82608030040253,2.04357226003688,23.6851257,3.203,18.3589329,3.203,18.7428293
3301,1,0.999,0.05,1,1,3.09023230616781,0.01,1.6,0.2071713,NaN,NaN,NaN,0.002837,3.5,0.2551504,3.5,0.2568634
3302,1,0.999,0.05,1,1,3.09023230616781,0.05,1.6,0.1985138,NaN,NaN,NaN,0.0027684,3.5,0.2622964,3.5,0.25936
3303,1,0.999,0.05,1,2,3.09023230616781,0.01,1.63,0.4843904,1.8361446406789,2.63868818402072,NaN,0.0938781,1.74,1.6866019,1.74,1.7014527
3304,1,0.999,0.05,1,2,3.09023230616781,0.05,1.63,0.4756447,1.8361446406789,2.63868818402072,NaN,0.091949,1.74,1.7028701,1.74,1.6990125
3305,1,0.999,0.05,1,3,3.09023230616781,0.01,1.286,2.0010404,1.79499014851258,2.65636733136553,NaN,26.24458,1.733,16.7051705,1.733,16.4366808
3306,1,0.999,0.05,1,3,3.09023230616781,0.05,1.286,2.0032252,1.79499014851258,2.65636733136553,NaN,26.4550638,1.733,16.4113458,1.733,16.9523225
3307,2,0.999,0.05,1,1,3.09023230616781,0.01,1.6,0.2007311,NaN,NaN,NaN,0.0026201,3.4,0.2527561,3.4,0.2451233
3308,2,0.999,0.05,1,1,3.09023230616781,0.05,1.6,0.2003028,NaN,NaN,NaN,0.002655,3.4,0.2403782,3.4,0.2442909
3309,2,0.999,0.05,1,2,3.09023230616781,0.01,1.59,0.3619132,1.60912396081793,2.67927620831431,NaN,0.0728771,2.06,1.81186,2.06,1.8649255
3310,2,0.999,0.05,1,2,3.09023230616781,0.05,1.59,0.3534736,1.60912396081793,2.67927620831431,NaN,0.0870286,2.06,1.8398796,2.06,1.8331086
3311,2,0.999,0.05,1,3,3.09023230616781,0.01,1.217,1.9931653,1.60818382461132,2.67066308546352,NaN,24.9179996,2.031,17.8630526,2.031,17.3947358
3312,2,0.999,0.05,1,3,3.09023230616781,0.05,1.217,1.9785733,1.60818382461132,2.67066308546352,NaN,24.6915886,2.031,17.3864963,2.031,17.8636123
3313,3,0.999,0.05,1,1,3.09023230616781,0.01,2,0.3589358,2.12284957613188,NaN,NaN,0.004727,1.4,0.1483748,1.4,0.1495091
3314,3,0.999,0.05,1,1,3.09023230616781,0.05,2,0.3528472,2.12284957613188,NaN,NaN,0.0045876,1.6,0.158396,1.6,0.1568222
3315,3,0.999,0.05,1,2,3.09023230616781,0.01,2.09,0.7064307,2.2192997406555,NaN,NaN,0.0731446,1.19,1.2306998,1.19,1.2531023
3316,3,0.999,0.05,1,2,3.09023230616781,0.05,2.09,0.7068591,2.2192997406555,NaN,NaN,0.0788622,1.25,1.2871102,1.25,1.3039183
3317,3,0.999,0.05,1,3,3.09023230616781,0.01,1.306,2.0783738,1.64903543478799,2.11020634372402,NaN,24.0335457,1.191,12.6106785,1.191,13.1495146
3318,3,0.999,0.05,1,3,3.09023230616781,0.05,1.306,2.0652324,1.64903543478799,2.11020634372402,NaN,24.1486474,1.196,12.7048146,1.247,13.0198151
3319,4,0.999,0.05,1,1,3.09023230616781,0.01,2.1,0.3146308,NaN,NaN,NaN,0.0029016,1.6,0.159055,1.6,0.1561923
3320,4,0.999,0.05,1,1,3.09023230616781,0.05,2.5,0.425287,NaN,NaN,NaN,0.0028292,1.6,0.1576791,1.6,0.1572493
3321,4,0.999,0.05,1,2,3.09023230616781,0.01,1.5,0.4754489,2.49657955765623,NaN,NaN,0.0818126,1.42,1.5408571,1.42,1.5237794
3322,4,0.999,0.05,1,2,3.09023230616781,0.05,2.11,0.7400788,2.49657955765623,NaN,NaN,0.0926714,1.42,1.4670532,1.42,1.3994182
3323,4,0.999,0.05,1,3,3.09023230616781,0.01,1.284,2.0257832,1.64994192095315,2.55954731835756,NaN,24.8776061,1.37,13.6639746,1.37,13.7180754
3324,4,0.999,0.05,1,3,3.09023230616781,0.05,1.284,2.0315033,1.64994192095315,2.55954731835756,NaN,25.2625974,1.37,13.5862141,1.37,13.5954825
3325,5,0.999,0.05,1,1,3.09023230616781,0.01,2.4,0.5442376,NaN,NaN,NaN,0.0031138,1.7,0.1683848,1.7,0.1769865
3326,5,0.999,0.05,1,1,3.09023230616781,0.05,2.4,0.5057548,NaN,NaN,NaN,0.0028391,1.7,0.1664382,1.7,0.163662
3327,5,0.999,0.05,1,2,3.09023230616781,0.01,2.06,0.6753728,2.3547995186502,NaN,NaN,0.087592,1.45,1.4488581,1.45,1.4340591
3328,5,0.999,0.05,1,2,3.09023230616781,0.05,2.43,0.8025546,2.3547995186502,NaN,NaN,0.0802205,1.45,1.5387558,1.45,1.421946
3329,5,0.999,0.05,1,3,3.09023230616781,0.01,1.208,1.910408,1.17289768704035,1.47989460537049,2.38732797022117,24.1325516,1.384,13.8958219,1.384,13.9348877
3330,5,0.999,0.05,1,3,3.09023230616781,0.05,1.208,1.9264617,1.17289768704035,1.47989460537049,2.38732797022117,24.5578259,1.384,13.9532026,1.384,13.8891572
3331,6,0.999,0.05,1,1,3.09023230616781,0.01,2,0.2312458,1.15832739486132,NaN,NaN,0.0052647,1.8,0.1729595,1.8,0.168166
3332,6,0.999,0.05,1,1,3.09023230616781,0.05,2.2,0.3740084,1.15832739486132,NaN,NaN,0.0050551,1.8,0.1706319,1.8,0.1701828
3333,6,0.999,0.05,1,2,3.09023230616781,0.01,2.09,0.4650315,1.09798673771771,2.49549417977305,2.75591272488886,0.0697214,1.67,1.6070526,1.67,1.5717159
3334,6,0.999,0.05,1,2,3.09023230616781,0.05,2.09,0.4542571,1.09798673771771,2.49549417977305,2.75591272488886,0.0844579,1.67,1.5927463,1.67,1.5677541
3335,6,0.999,0.05,1,3,3.09023230616781,0.01,0.692,1.3007005,1.09264543618719,2.48242021956139,NaN,24.0578349,1.518,14.6225603,1.518,14.7381562
3336,6,0.999,0.05,1,3,3.09023230616781,0.05,1.237,2.1308312,1.09264543618719,2.48242021956139,NaN,24.3446698,1.518,15.262575,1.518,14.6068975
3337,7,0.999,0.05,1,1,3.09023230616781,0.01,0.8,0.0992318,NaN,NaN,NaN,0.0028749,2.2,0.2028676,2.2,0.1988142
3338,7,0.999,0.05,1,1,3.09023230616781,0.05,1.5,0.1808635,NaN,NaN,NaN,0.0028528,2.2,0.2012763,2.2,0.1977952
3339,7,0.999,0.05,1,2,3.09023230616781,0.01,1.58,0.4685025,NaN,NaN,NaN,0.0905028,1.87,1.7196173,1.87,1.7453583
3340,7,0.999,0.05,1,2,3.09023230616781,0.05,1.58,0.5065883,NaN,NaN,NaN,0.0888075,1.87,1.7148961,1.87,1.8015191
3341,7,0.999,0.05,1,3,3.09023230616781,0.01,0.776,1.34136,1.84203228492348,NaN,NaN,25.8383092,1.85,16.7913989,1.85,16.4404208
3342,7,0.999,0.05,1,3,3.09023230616781,0.05,0.776,1.3293689,1.84203228492348,NaN,NaN,25.4285321,1.85,16.6693355,1.85,16.3016316
3343,8,0.999,0.05,1,1,3.09023230616781,0.01,1.4,0.1832921,NaN,NaN,NaN,0.002678,2.2,0.2020186,2.2,0.2010755
3344,8,0.999,0.05,1,1,3.09023230616781,0.05,1.4,0.1804976,NaN,NaN,NaN,0.0028186,2.2,0.1984245,2.2,0.1983225
3345,8,0.999,0.05,1,2,3.09023230616781,0.01,1.43,0.4723394,NaN,NaN,NaN,0.0839405,1.79,1.6811049,1.79,1.6719414
3346,8,0.999,0.05,1,2,3.09023230616781,0.05,1.43,0.471624,NaN,NaN,NaN,0.0901982,1.79,1.6866371,1.79,1.6971154
3347,8,0.999,0.05,1,3,3.09023230616781,0.01,0.89,1.2511823,1.45859120737075,1.9348089375106,2.89518026693388,23.6085485,1.724,16.4717606,1.724,16.0885491
3348,8,0.999,0.05,1,3,3.09023230616781,0.05,0.89,1.3050111,1.45859120737075,1.9348089375106,2.89518026693388,23.9321903,1.724,15.921078,1.724,16.3773005
3349,9,0.999,0.05,1,1,3.09023230616781,0.01,1.5,0.2857734,NaN,NaN,NaN,0.0029113,1.7,0.1655404,1.7,0.1627804
3350,9,0.999,0.05,1,1,3.09023230616781,0.05,2.2,0.3805398,NaN,NaN,NaN,0.0029122,1.7,0.164588,1.7,0.1620286
3351,9,0.999,0.05,1,2,3.09023230616781,0.01,1.43,0.3600924,1.56056602045345,2.17010291585286,2.6430810022339,0.0866844,1.39,1.3899624,1.39,1.3855276
3352,9,0.999,0.05,1,2,3.09023230616781,0.05,1.43,0.3446417,1.56056602045345,2.17010291585286,2.6430810022339,0.0962052,1.39,1.371573,1.39,1.3934139
3353,9,0.999,0.05,1,3,3.09023230616781,0.01,1.165,2.1102276,1.49600714832548,2.15813090148392,2.65277127353705,24.9380852,1.378,13.7273455,1.378,14.2574277
3354,9,0.999,0.05,1,3,3.09023230616781,0.05,1.165,2.1013056,1.49600714832548,2.15813090148392,2.65277127353705,24.8129335,1.378,13.6875504,1.378,13.721596
3355,10,0.999,0.05,1,1,3.09023230616781,0.01,1.7,0.1876765,NaN,NaN,NaN,0.0026078,2.1,0.201686,2.1,0.198032
3356,10,0.999,0.05,1,1,3.09023230616781,0.05,1.7,0.1857406,NaN,NaN,NaN,0.0030857,2.1,0.201528,2.1,0.2446564
3357,10,0.999,0.05,1,2,3.09023230616781,0.01,1.39,0.5559147,2.49151266154824,NaN,NaN,0.0897711,1.87,1.9669309,1.87,1.904218
3358,10,0.999,0.05,1,2,3.09023230616781,0.05,1.39,0.4773563,2.49151266154824,NaN,NaN,0.0687949,1.87,1.7454658,1.87,1.7683089
3359,10,0.999,0.05,1,3,3.09023230616781,0.01,1.387,1.9727553,1.36555230889941,1.74219945650233,2.52761226983932,24.1754785,1.803,16.4732449,1.803,16.7344718
3360,10,0.999,0.05,1,3,3.09023230616781,0.05,1.387,2.0473942,1.36555230889941,1.74219945650233,2.52761226983932,24.6312399,1.803,16.4504458,1.803,16.4664481
3361,1,0.999,0.05,2,1,3.09023230616781,0.01,1.9,0.3735266,2.15909233184089,NaN,NaN,0.0050496,1.6,0.1516326,1.6,0.1495267
3362,1,0.999,0.05,2,1,3.09023230616781,0.05,2.2,0.515308,2.15909233184089,NaN,NaN,0.0049711,1.7,0.1577467,1.6,0.1504587
3363,1,0.999,0.05,2,2,3.09023230616781,0.01,1.94,0.6760491,2.23284900686993,NaN,NaN,0.08619,1.1,1.1303002,1.08,1.2680461
3364,1,0.999,0.05,2,2,3.09023230616781,0.05,1.94,0.7665302,2.23284900686993,NaN,NaN,0.1001752,1.55,1.4772319,1.1,1.2419588
3365,1,0.999,0.05,2,3,3.09023230616781,0.01,1.438,1.8791109,1.45046548873882,2.23327426374034,NaN,23.9455828,1.096,11.2147608,1.087,11.1527598
3366,1,0.999,0.05,2,3,3.09023230616781,0.05,1.438,1.8887355,1.45046548873882,2.23327426374034,NaN,24.0791458,1.267,12.2603125,1.101,11.2661169
3367,2,0.999,0.05,2,1,3.09023230616781,0.01,2,0.3049861,NaN,NaN,NaN,0.0027478,1.5,0.1456174,1.4,0.1489383
3368,2,0.999,0.05,2,1,3.09023230616781,0.05,2,0.3053598,NaN,NaN,NaN,0.0026673,1.5,0.1466476,1.5,0.1443764
3369,2,0.999,0.05,2,2,3.09023230616781,0.01,1.66,0.4672506,2.58530572919563,NaN,NaN,0.0867131,1.16,1.2065546,1.16,1.2109008
3370,2,0.999,0.05,2,2,3.09023230616781,0.05,1.66,0.4819641,2.58530572919563,NaN,NaN,0.0876326,1.26,1.2646888,1.24,1.2598718
3371,2,0.999,0.05,2,3,3.09023230616781,0.01,1.047,2.0902177,1.81834006115493,2.57030301055232,NaN,25.1082663,1.162,11.9923041,1.164,12.0620299
3372,2,0.999,0.05,2,3,3.09023230616781,0.05,1.663,2.6375821,1.81834006115493,2.57030301055232,NaN,25.0863985,1.242,12.9296812,1.24,12.4899565
3373,3,0.999,0.05,2,1,3.09023230616781,0.01,0.9,0.0937469,1.27316005765666,NaN,NaN,0.0050262,2.2,0.197837,2.2,0.2088446
3374,3,0.999,0.05,2,1,3.09023230616781,0.05,0.9,0.0843993,1.27316005765666,NaN,NaN,0.0046663,2.2,0.2023381,2.2,0.2001644
3375,3,0.999,0.05,2,2,3.09023230616781,0.01,0.94,0.2420254,1.21504186881908,1.78639331485253,NaN,0.0754548,1.86,1.7301627,1.86,1.7351175
3376,3,0.999,0.05,2,2,3.09023230616781,0.05,0.94,0.2373067,1.21504186881908,1.78639331485253,NaN,0.0667175,1.86,1.7156031,1.86,1.729092
3377,3,0.999,0.05,2,3,3.09023230616781,0.01,0.951,1.3023055,1.20752287057227,1.77480231333239,2.27370302098261,24.1145958,1.849,16.892746,1.849,16.9369793
3378,3,0.999,0.05,2,3,3.09023230616781,0.05,0.951,1.2847533,1.20752287057227,1.77480231333239,2.27370302098261,23.8660787,1.849,16.7484999,1.849,17.0924685
3379,4,0.999,0.05,2,1,3.09023230616781,0.01,2,0.3395385,2.16658109173209,NaN,NaN,0.0053731,1.5,0.1500739,1.5,0.1509158
3380,4,0.999,0.05,2,1,3.09023230616781,0.05,2,0.3490585,2.16658109173209,NaN,NaN,0.0050927,1.6,0.1542414,1.6,0.1537755
3381,4,0.999,0.05,2,2,3.09023230616781,0.01,1.91,0.702099,2.30586760549572,NaN,NaN,0.0863209,1.2,1.2262092,1.2,1.2162872
3382,4,0.999,0.05,2,2,3.09023230616781,0.05,1.91,0.6906211,2.30586760549572,NaN,NaN,0.0888053,1.2,1.2061773,1.2,1.2167087
3383,4,0.999,0.05,2,3,3.09023230616781,0.01,1.397,2.0242514,2.33701494750427,NaN,NaN,24.2592302,1.167,11.9274178,1.195,12.4902132
3384,4,0.999,0.05,2,3,3.09023230616781,0.05,1.397,2.044742,2.33701494750427,NaN,NaN,24.4729928,1.198,12.0716053,1.198,12.0241879
3385,5,0.999,0.05,2,1,3.09023230616781,0.01,1.4,0.2385188,NaN,NaN,NaN,0.0025047,1.5,0.1465634,1.5,0.1444802
3386,5,0.999,0.05,2,1,3.09023230616781,0.05,1.4,0.234874,NaN,NaN,NaN,0.0025386,1.6,0.1539712,1.5,0.1439716
3387,5,0.999,0.05,2,2,3.09023230616781,0.01,1.5,0.4638277,2.50431190439226,NaN,NaN,0.0887607,1.19,1.2115532,1.16,1.168297
3388,5,0.999,0.05,2,2,3.09023230616781,0.05,1.5,0.4760513,2.50431190439226,NaN,NaN,0.0758873,1.23,1.2393372,1.19,1.1985336
3389,5,0.999,0.05,2,3,3.09023230616781,0.01,0.863,1.3174707,1.63150639394257,2.00018674112614,2.5031165839221,24.6751011,1.19,11.9998379,1.166,11.7571728
3390,5,0.999,0.05,2,3,3.09023230616781,0.05,0.863,1.3095223,1.63150639394257,2.00018674112614,2.5031165839221,24.6114825,1.228,12.1371958,1.19,11.8921679
3391,6,0.999,0.05,2,1,3.09023230616781,0.01,1.9,0.3305368,2.31087624388865,NaN,NaN,0.004702,1.5,0.1508947,1.6,0.1525561
3392,6,0.999,0.05,2,1,3.09023230616781,0.05,2.3,0.4642947,2.31087624388865,NaN,NaN,0.004952,1.6,0.1586168,1.6,0.1573142
3393,6,0.999,0.05,2,2,3.09023230616781,0.01,1.61,0.4818929,2.34681024062973,NaN,NaN,0.0817483,1.15,1.1973401,1.14,1.2043944
3394,6,0.999,0.05,2,2,3.09023230616781,0.05,1.61,0.4867972,2.34681024062973,NaN,NaN,0.0844495,1.23,1.2491083,1.23,1.2393383
3395,6,0.999,0.05,2,3,3.09023230616781,0.01,0.852,1.3260487,1.05454717943172,2.34905390200411,NaN,25.1274929,1.15,12.5504906,1.15,12.0081547
3396,6,0.999,0.05,2,3,3.09023230616781,0.05,0.852,1.3301626,1.05454717943172,2.34905390200411,NaN,25.0219836,1.234,12.466266,1.234,13.0185189
3397,7,0.999,0.05,2,1,3.09023230616781,0.01,2.2,0.4155723,2.441287375311,NaN,NaN,0.0058012,1.5,0.1493597,1.5,0.1439924
3398,7,0.999,0.05,2,1,3.09023230616781,0.05,2.2,0.4272872,2.441287375311,NaN,NaN,0.0052732,1.5,0.1446468,1.5,0.1403855
3399,7,0.999,0.05,2,2,3.09023230616781,0.01,1.86,0.690006,2.49152450143506,NaN,NaN,0.0833,1.19,1.2191367,1.19,1.2611268
3400,7,0.999,0.05,2,2,3.09023230616781,0.05,1.86,0.6844048,2.49152450143506,NaN,NaN,0.0807089,1.26,1.3100821,1.26,1.2794753
3401,7,0.999,0.05,2,3,3.09023230616781,0.01,1.154,2.0829137,1.16195235245193,1.9504453258447,2.51673841559367,26.3613681,1.199,12.3124384,1.199,12.8513383
3402,7,0.999,0.05,2,3,3.09023230616781,0.05,1.154,2.0621833,1.16195235245193,1.9504453258447,2.51673841559367,26.4021609,1.201,12.2208852,1.254,12.5622392
3403,8,0.999,0.05,2,1,3.09023230616781,0.01,2.1,0.3303715,NaN,NaN,NaN,0.0030565,1.5,0.1448454,1.5,0.1411801
3404,8,0.999,0.05,2,1,3.09023230616781,0.05,2.8,0.5757171,NaN,NaN,NaN,0.0030218,1.5,0.1429737,1.5,0.1382615
3405,8,0.999,0.05,2,2,3.09023230616781,0.01,1.64,0.712657,2.74862204165128,NaN,NaN,0.0899459,1.17,1.145914,1.16,1.1348903
3406,8,0.999,0.05,2,2,3.09023230616781,0.05,1.64,0.7133156,2.74862204165128,NaN,NaN,0.0930805,1.17,1.1424723,1.17,1.2754774
3407,8,0.999,0.05,2,3,3.09023230616781,0.01,1.196,2.2241238,1.799337473469,2.71121984986275,NaN,24.9965949,1.165,11.3815068,1.165,11.3476904
3408,8,0.999,0.05,2,3,3.09023230616781,0.05,1.196,2.1078883,1.799337473469,2.71121984986275,NaN,24.8826268,1.171,11.369674,1.166,11.361094
3409,9,0.999,0.05,2,1,3.09023230616781,0.01,0.8,0.1038713,NaN,NaN,NaN,0.0026536,1.4,0.1437689,1.4,0.1396613
3410,9,0.999,0.05,2,1,3.09023230616781,0.05,0.8,0.1048223,NaN,NaN,NaN,0.0030838,1.5,0.1450946,1.5,0.1469555
3411,9,0.999,0.05,2,2,3.09023230616781,0.01,1.14,0.4849557,1.55113865808731,NaN,NaN,0.082191,1.26,1.2498508,1.26,1.2460278
3412,9,0.999,0.05,2,2,3.09023230616781,0.05,1.14,0.4751243,1.55113865808731,NaN,NaN,0.0849568,1.26,1.2543057,1.26,1.2346039
3413,9,0.999,0.05,2,3,3.09023230616781,0.01,0.675,1.3144601,1.49127572998912,2.10101315682218,NaN,25.2164383,1.262,12.2789712,1.262,12.1205749
3414,9,0.999,0.05,2,3,3.09023230616781,0.05,0.675,1.3262122,1.49127572998912,2.10101315682218,NaN,24.888658,1.263,12.2845789,1.263,12.5284289
3415,10,0.999,0.05,2,1,3.09023230616781,0.01,1.7,0.3343187,NaN,NaN,NaN,0.0028686,1.4,0.1407901,1.4,0.1383382
3416,10,0.999,0.05,2,1,3.09023230616781,0.05,1.7,0.3178993,NaN,NaN,NaN,0.0027746,1.5,0.1436191,1.5,0.1579834
3417,10,0.999,0.05,2,2,3.09023230616781,0.01,1.2,0.4646445,2.60854798906816,NaN,NaN,0.0679904,1.22,1.2089359,1.21,1.1895456
3418,10,0.999,0.05,2,2,3.09023230616781,0.05,1.2,0.4623224,2.60854798906816,NaN,NaN,0.0881672,1.22,1.2445135,1.22,1.2099886
3419,10,0.999,0.05,2,3,3.09023230616781,0.01,1.17,1.9397895,1.18423841734735,1.79973602168869,2.60856189776334,23.2762966,1.216,11.8503243,1.203,12.101736
3420,10,0.999,0.05,2,3,3.09023230616781,0.05,1.17,2.0358819,1.18423841734735,1.79973602168869,2.60856189776334,23.4665043,1.22,11.9478635,1.218,11.8635616
3421,1,0.999,0.1,0.5,1,3.09023230616781,0.01,1.4,0.1979535,NaN,NaN,NaN,0.0029902,3.3,0.2758401,3.3,0.2556235
3422,1,0.999,0.1,0.5,1,3.09023230616781,0.05,1.4,0.1961531,NaN,NaN,NaN,0.0026418,3.3,0.2491596,3.3,0.2512596
3423,1,0.999,0.1,0.5,2,3.09023230616781,0.01,1.46,0.4806591,2.20993459437146,NaN,NaN,0.0865043,3.27,2.2292579,3.27,2.3031163
3424,1,0.999,0.1,0.5,2,3.09023230616781,0.05,1.46,0.4736042,2.20993459437146,NaN,NaN,0.0956996,3.27,2.2650504,3.27,2.3008274
3425,1,0.999,0.1,0.5,3,3.09023230616781,0.01,1.462,2.0806702,1.53406144088242,2.13841824556393,2.25490557080347,24.4153165,3.271,18.5470418,3.271,18.6292929
3426,1,0.999,0.1,0.5,3,3.09023230616781,0.05,1.462,1.934453,1.53406144088242,2.13841824556393,2.25490557080347,24.1455004,3.271,18.4579033,3.271,18.6133843
3427,2,0.999,0.1,0.5,1,3.09023230616781,0.01,0.9,0.1126708,NaN,NaN,NaN,0.0027164,3.4,0.2481528,3.4,0.2480405
3428,2,0.999,0.1,0.5,1,3.09023230616781,0.05,0.9,0.1097196,NaN,NaN,NaN,0.0029868,3.4,0.247753,3.4,0.2492624
3429,2,0.999,0.1,0.5,2,3.09023230616781,0.01,0.77,0.2635517,2.13805444295694,NaN,NaN,0.0954811,3.39,2.2286484,3.39,2.4329176
3430,2,0.999,0.1,0.5,2,3.09023230616781,0.05,1.75,0.4277508,2.13805444295694,NaN,NaN,0.0775333,3.39,2.4588769,3.39,2.3176326
3431,2,0.999,0.1,0.5,3,3.09023230616781,0.01,0.774,1.3185552,0.953678280054104,1.67697806788237,2.1368004971006,25.3164724,3.391,18.2632735,3.391,18.6962412
3432,2,0.999,0.1,0.5,3,3.09023230616781,0.05,1.583,1.5894671,0.953678280054104,1.67697806788237,2.1368004971006,25.2203248,3.391,18.3061437,3.391,18.633119
3433,3,0.999,0.1,0.5,1,3.09023230616781,0.01,0.9,0.1064858,NaN,NaN,NaN,0.0026629,3.3,0.2799987,3.3,0.2797069
3434,3,0.999,0.1,0.5,1,3.09023230616781,0.05,1.3,0.2316882,NaN,NaN,NaN,0.0029397,3.3,0.2982939,3.3,0.2692699
3435,3,0.999,0.1,0.5,2,3.09023230616781,0.01,0.85,0.246201,1.32225138579689,2.40456682970096,NaN,0.0897852,3.27,2.2699841,3.27,2.2524005
3436,3,0.999,0.1,0.5,2,3.09023230616781,0.05,1.37,0.3502675,1.32225138579689,2.40456682970096,NaN,0.0934967,3.27,2.247828,3.27,2.2726572
3437,3,0.999,0.1,0.5,3,3.09023230616781,0.01,0.848,1.3413305,1.30075753446729,2.38132843937781,NaN,24.53799,3.266,18.3313283,3.266,18.7770307
3438,3,0.999,0.1,0.5,3,3.09023230616781,0.05,1.369,1.9238431,1.30075753446729,2.38132843937781,NaN,24.609171,3.266,18.4120245,3.266,18.8526449
3439,4,0.999,0.1,0.5,1,3.09023230616781,0.01,1.5,0.2330793,NaN,NaN,NaN,0.0029895,1.9,0.1776611,1.9,0.1724096
3440,4,0.999,0.1,0.5,1,3.09023230616781,0.05,2.2,0.3206056,NaN,NaN,NaN,0.003184,1.9,0.1791227,1.9,0.1772047
3441,4,0.999,0.1,0.5,2,3.09023230616781,0.01,1.48,0.3615894,2.71508062467098,NaN,NaN,0.074438,1.46,1.4503619,1.46,1.4591864
3442,4,0.999,0.1,0.5,2,3.09023230616781,0.05,1.48,0.373835,2.71508062467098,NaN,NaN,0.0697042,1.46,1.4546751,1.46,1.4521017
3443,4,0.999,0.1,0.5,3,3.09023230616781,0.01,0.962,1.3482012,1.4788533781856,1.81576814898351,2.11025275351592,26.0296827,1.441,14.2809466,1.441,14.9232638
3444,4,0.999,0.1,0.5,3,3.09023230616781,0.05,1.49,1.9842448,1.4788533781856,1.81576814898351,2.11025275351592,25.8241797,1.441,14.3754903,1.441,14.3701517
3445,5,0.999,0.1,0.5,1,3.09023230616781,0.01,1.7,0.1737599,NaN,NaN,NaN,0.002735,2,0.1841162,2,0.1815678
3446,5,0.999,0.1,0.5,1,3.09023230616781,0.05,1.7,0.1672765,NaN,NaN,NaN,0.0026869,2,0.1912685,2,0.1867224
3447,5,0.999,0.1,0.5,2,3.09023230616781,0.01,1.62,0.4796118,2.67360984868438,NaN,NaN,0.1125844,1.72,1.7711714,1.72,1.8204997
3448,5,0.999,0.1,0.5,2,3.09023230616781,0.05,1.62,0.5195311,2.67360984868438,NaN,NaN,0.080774,1.72,1.6990942,1.72,1.6326693
3449,5,0.999,0.1,0.5,3,3.09023230616781,0.01,0.895,1.3308182,2.02958632493623,2.66769294307508,NaN,25.4188971,1.699,15.7492838,1.699,15.6515936
3450,5,0.999,0.1,0.5,3,3.09023230616781,0.05,0.895,1.4511265,2.02958632493623,2.66769294307508,NaN,24.8324051,1.699,15.6806868,1.699,15.7332757
3451,6,0.999,0.1,0.5,1,3.09023230616781,0.01,1.7,0.2215767,NaN,NaN,NaN,0.0033997,3.6,0.2569002,3.6,0.2532365
3452,6,0.999,0.1,0.5,1,3.09023230616781,0.05,1.7,0.221074,NaN,NaN,NaN,0.0040574,3.6,0.2532753,3.6,0.2596078
3453,6,0.999,0.1,0.5,2,3.09023230616781,0.01,1.07,0.2499794,1.82278201951638,2.29428484952477,NaN,0.0864749,1.72,1.6456767,1.72,1.6614875
3454,6,0.999,0.1,0.5,2,3.09023230616781,0.05,1.43,0.3567168,1.82278201951638,2.29428484952477,NaN,0.0911399,1.72,1.6371666,1.72,1.8391203
3455,6,0.999,0.1,0.5,3,3.09023230616781,0.01,1.429,1.9525672,1.4066619690994,1.76424496314543,2.28738853130878,25.0485923,1.699,15.9557493,1.699,15.992426
3456,6,0.999,0.1,0.5,3,3.09023230616781,0.05,1.429,1.8674678,1.4066619690994,1.76424496314543,2.28738853130878,24.9744981,1.699,16.1182962,1.699,16.030665
3457,7,0.999,0.1,0.5,1,3.09023230616781,0.01,1,0.0887106,NaN,NaN,NaN,0.0026154,3.2,0.2416862,3.2,0.240849
3458,7,0.999,0.1,0.5,1,3.09023230616781,0.05,1.3,0.2407172,NaN,NaN,NaN,0.0025272,3.2,0.2497807,3.2,0.2383185
3459,7,0.999,0.1,0.5,2,3.09023230616781,0.01,1.36,0.3740007,1.33448580008291,2.27190070246941,NaN,0.0922623,2.02,1.8042554,2.02,1.8203397
3460,7,0.999,0.1,0.5,2,3.09023230616781,0.05,1.36,0.3688245,1.33448580008291,2.27190070246941,NaN,0.0925589,2.02,1.8107024,2.02,1.8156681
3461,7,0.999,0.1,0.5,3,3.09023230616781,0.01,1.313,1.9549562,1.27374298781401,1.58602118201827,2.06461791570016,24.2471837,2.017,16.8881838,2.017,16.9590843
3462,7,0.999,0.1,0.5,3,3.09023230616781,0.05,1.313,1.916667,1.27374298781401,1.58602118201827,2.06461791570016,24.6482635,2.017,17.031331,2.017,16.9232165
3463,8,0.999,0.1,0.5,1,3.09023230616781,0.01,1,0.1045235,1.74093561768415,NaN,NaN,0.0049278,3.1,0.2521716,3.1,0.2427075
3464,8,0.999,0.1,0.5,1,3.09023230616781,0.05,1.7,0.2409865,1.74093561768415,NaN,NaN,0.0047143,3.1,0.2409254,3.1,0.2421492
3465,8,0.999,0.1,0.5,2,3.09023230616781,0.01,1.11,0.2567737,1.74947461115064,2.37063229102996,NaN,0.0875364,3.13,2.2296461,3.13,2.2193962
3466,8,0.999,0.1,0.5,2,3.09023230616781,0.05,1.7,0.4131611,1.74947461115064,2.37063229102996,NaN,0.0799716,3.13,2.2253867,3.13,2.2599843
3467,8,0.999,0.1,0.5,3,3.09023230616781,0.01,1.39,1.8360377,1.71843162410744,1.92353937351553,2.37740859632194,23.0375577,3.131,18.3239661,3.131,18.3591321
3468,8,0.999,0.1,0.5,3,3.09023230616781,0.05,1.39,1.8225331,1.71843162410744,1.92353937351553,2.37740859632194,23.1559811,3.131,18.3272719,3.131,18.2789495
3469,9,0.999,0.1,0.5,1,3.09023230616781,0.01,1.1,0.0891366,1.76002394096553,NaN,NaN,0.0061742,3.4,0.2526711,3.4,0.2492476
3470,9,0.999,0.1,0.5,1,3.09023230616781,0.05,1.1,0.0895172,1.76002394096553,NaN,NaN,0.0052724,3.4,0.2538754,3.4,0.2574324
3471,9,0.999,0.1,0.5,2,3.09023230616781,0.01,1.14,0.2439865,1.33501893982238,1.6815476870712,2.48560651659496,0.0770193,3.42,2.2996153,3.42,2.2726787
3472,9,0.999,0.1,0.5,2,3.09023230616781,0.05,1.14,0.2424206,1.33501893982238,1.6815476870712,2.48560651659496,0.1007123,3.42,2.2621075,3.42,2.2839546
3473,9,0.999,0.1,0.5,3,3.09023230616781,0.01,1.148,1.37172,1.29094481039851,1.65990789101042,2.19972644181834,24.7507428,3.416,18.6322119,3.416,18.636754
3474,9,0.999,0.1,0.5,3,3.09023230616781,0.05,1.148,1.3050579,1.29094481039851,1.65990789101042,2.19972644181834,24.8981311,3.416,18.6059124,3.416,18.6540856
3475,10,0.999,0.1,0.5,1,3.09023230616781,0.01,0.8,0.1143123,1.26872619259383,NaN,NaN,0.0046415,3.3,0.2480197,3.3,0.2558578
3476,10,0.999,0.1,0.5,1,3.09023230616781,0.05,0.8,0.1072865,1.26872619259383,NaN,NaN,0.0049258,3.3,0.2430462,3.3,0.2459352
3477,10,0.999,0.1,0.5,2,3.09023230616781,0.01,0.88,0.2386978,1.28925656731227,NaN,NaN,0.0947734,2.23,1.9035959,2.23,1.943004
3478,10,0.999,0.1,0.5,2,3.09023230616781,0.05,0.88,0.3009059,1.28925656731227,NaN,NaN,0.1004123,2.23,2.0759484,2.23,2.0571804
3479,10,0.999,0.1,0.5,3,3.09023230616781,0.01,0.742,1.2983005,1.31753287140649,2.28770773346534,NaN,24.0118655,2.209,17.166332,2.209,17.1518945
3480,10,0.999,0.1,0.5,3,3.09023230616781,0.05,1.494,2.0449911,1.31753287140649,2.28770773346534,NaN,24.530085,2.209,17.1351167,2.209,17.1297113
3481,1,0.999,0.1,1,1,3.09023230616781,0.01,1.3,0.22209,NaN,NaN,NaN,0.002861,2,0.1840327,2,0.1943055
3482,1,0.999,0.1,1,1,3.09023230616781,0.05,1.3,0.2217174,NaN,NaN,NaN,0.0031557,2,0.1884155,2,0.1899037
3483,1,0.999,0.1,1,2,3.09023230616781,0.01,1.61,0.410798,2.50600003936714,NaN,NaN,0.0839672,1.57,1.5211669,1.57,1.5154511
3484,1,0.999,0.1,1,2,3.09023230616781,0.05,1.61,0.4159405,2.50600003936714,NaN,NaN,0.0836463,1.57,1.6862294,1.57,1.7779635
3485,1,0.999,0.1,1,3,3.09023230616781,0.01,1.34,1.9979324,2.09284452365157,2.48542003982336,2.68411397784866,23.6363157,1.476,14.794681,1.476,14.769589
3486,1,0.999,0.1,1,3,3.09023230616781,0.05,1.34,1.8886179,2.09284452365157,2.48542003982336,2.68411397784866,23.8606002,1.476,14.614435,1.476,14.703442
3487,2,0.999,0.1,1,1,3.09023230616781,0.01,0.9,0.095622,1.4645652589708,NaN,NaN,0.0052877,2.2,0.204489,2.2,0.205561
3488,2,0.999,0.1,1,1,3.09023230616781,0.05,1.4,0.2066185,1.4645652589708,NaN,NaN,0.0057763,2.2,0.2016429,2.2,0.2002747
3489,2,0.999,0.1,1,2,3.09023230616781,0.01,0.92,0.2424857,1.46900660729344,2.640239697581,NaN,0.0835887,2.05,1.8785368,2.05,1.8685702
3490,2,0.999,0.1,1,2,3.09023230616781,0.05,0.92,0.2359824,1.46900660729344,2.640239697581,NaN,0.0847274,2.05,1.8865585,2.05,1.89247
3491,2,0.999,0.1,1,3,3.09023230616781,0.01,0.88,1.268466,1.45567451365179,2.2397272049747,2.62115862162918,23.8806306,1.952,17.4212863,1.952,17.3876182
3492,2,0.999,0.1,1,3,3.09023230616781,0.05,0.88,1.2726584,1.45567451365179,2.2397272049747,2.62115862162918,23.8177675,1.952,17.4771237,1.952,17.4566199
3493,3,0.999,0.1,1,1,3.09023230616781,0.01,1.4,0.1917437,NaN,NaN,NaN,0.0027509,2.3,0.2065653,2.3,0.2055155
3494,3,0.999,0.1,1,1,3.09023230616781,0.05,1.4,0.1890947,NaN,NaN,NaN,0.0029502,2.3,0.2036378,2.3,0.1996167
3495,3,0.999,0.1,1,2,3.09023230616781,0.01,1.43,0.4792453,1.86604925800974,2.6055723429455,NaN,0.101859,1.84,1.7420744,1.84,1.7418877
3496,3,0.999,0.1,1,2,3.09023230616781,0.05,1.43,0.4656329,1.86604925800974,2.6055723429455,NaN,0.0786368,1.84,1.7243987,1.84,1.7283964
3497,3,0.999,0.1,1,3,3.09023230616781,0.01,1.339,1.9783431,1.84564070670766,2.6009432369297,NaN,24.9552538,1.831,16.5782095,1.831,16.5692638
3498,3,0.999,0.1,1,3,3.09023230616781,0.05,1.339,1.9629331,1.84564070670766,2.6009432369297,NaN,24.9673465,1.831,16.7354711,1.831,16.5523133
3499,4,0.999,0.1,1,1,3.09023230616781,0.01,1.5,0.2621789,NaN,NaN,NaN,0.0028509,2,0.1925183,2,0.1911271
3500,4,0.999,0.1,1,1,3.09023230616781,0.05,2.1,0.3440702,NaN,NaN,NaN,0.0028021,2,0.1874008,2,0.1859014
3501,4,0.999,0.1,1,2,3.09023230616781,0.01,1.32,0.3568065,1.31896067294677,NaN,NaN,0.0888722,1.52,1.5142008,1.52,1.506702
3502,4,0.999,0.1,1,2,3.09023230616781,0.05,1.32,0.3809739,1.31896067294677,NaN,NaN,0.0893262,1.73,1.628793,1.73,1.7002674
3503,4,0.999,0.1,1,3,3.09023230616781,0.01,1.322,1.9367267,1.28346046429295,1.71920923699253,2.1132408153378,24.9507032,1.322,14.0671486,1.322,14.0202471
3504,4,0.999,0.1,1,3,3.09023230616781,0.05,1.322,1.8972643,1.28346046429295,1.71920923699253,2.1132408153378,25.0170283,1.322,14.1450734,1.322,13.9309583
3505,5,0.999,0.1,1,1,3.09023230616781,0.01,1.4,0.2080954,NaN,NaN,NaN,0.0028044,1.7,0.1670325,1.7,0.1591588
3506,5,0.999,0.1,1,1,3.09023230616781,0.05,1.8,0.3070112,NaN,NaN,NaN,0.0037657,1.7,0.1682931,1.7,0.1651209
3507,5,0.999,0.1,1,2,3.09023230616781,0.01,1.78,0.477754,NaN,NaN,NaN,0.07456,1.44,1.4134803,1.44,1.4103135
3508,5,0.999,0.1,1,2,3.09023230616781,0.05,1.78,0.4746811,NaN,NaN,NaN,0.0857364,1.44,1.4006065,1.44,1.4289695
3509,5,0.999,0.1,1,3,3.09023230616781,0.01,0.769,1.3034787,0.914314363233456,1.81718655694996,2.33287675967281,24.3971338,1.409,14.2961543,1.409,13.7727011
3510,5,0.999,0.1,1,3,3.09023230616781,0.05,0.769,1.3078187,0.914314363233456,1.81718655694996,2.33287675967281,24.3414553,1.409,13.9661208,1.409,14.3278026
3511,6,0.999,0.1,1,1,3.09023230616781,0.01,1.2,0.2491236,1.23535948282793,NaN,NaN,0.0048322,1.9,0.1775968,1.9,0.1716801
3512,6,0.999,0.1,1,1,3.09023230616781,0.05,1.2,0.2316243,1.23535948282793,NaN,NaN,0.0044418,1.9,0.1726421,1.9,0.1799482
3513,6,0.999,0.1,1,2,3.09023230616781,0.01,0.74,0.2421602,1.22545033495621,NaN,NaN,0.0785116,1.63,1.5230397,1.63,1.5444697
3514,6,0.999,0.1,1,2,3.09023230616781,0.05,1.26,0.4669347,1.22545033495621,NaN,NaN,0.0863015,1.63,1.5356938,1.63,1.5608527
3515,6,0.999,0.1,1,3,3.09023230616781,0.01,0.741,1.2910001,1.22309608759115,1.74990170044442,2.55891092588737,23.6904841,1.612,15.0313408,1.612,15.4292939
3516,6,0.999,0.1,1,3,3.09023230616781,0.05,0.741,1.2670764,1.22309608759115,1.74990170044442,2.55891092588737,23.932686,1.612,14.9535381,1.612,15.1248629
3517,7,0.999,0.1,1,1,3.09023230616781,0.01,1.5,0.199303,NaN,NaN,NaN,0.0037751,1.9,0.2241826,1.9,0.1776224
3518,7,0.999,0.1,1,1,3.09023230616781,0.05,1.9,0.3062579,NaN,NaN,NaN,0.0027432,1.9,0.2427006,1.9,0.1806629
3519,7,0.999,0.1,1,2,3.09023230616781,0.01,1.51,0.4970261,2.60416048275047,NaN,NaN,0.1155927,1.58,1.6040191,1.58,1.5280819
3520,7,0.999,0.1,1,2,3.09023230616781,0.05,1.51,0.4788261,2.60416048275047,NaN,NaN,0.0870551,1.58,1.5215956,1.58,1.5776998
3521,7,0.999,0.1,1,3,3.09023230616781,0.01,1.512,1.9729181,1.47676104499661,2.22993724864558,2.62081233009853,25.8047353,1.517,14.6622006,1.517,15.0311399
3522,7,0.999,0.1,1,3,3.09023230616781,0.05,1.512,2.060688,1.47676104499661,2.22993724864558,2.62081233009853,25.8808137,1.517,14.6388816,1.517,14.6693582
3523,8,0.999,0.1,1,1,3.09023230616781,0.01,1.4,0.2458643,NaN,NaN,NaN,0.0028317,1.9,0.1837403,1.9,0.1842054
3524,8,0.999,0.1,1,1,3.09023230616781,0.05,1.4,0.2381818,NaN,NaN,NaN,0.0028204,1.9,0.1800074,1.9,0.1766741
3525,8,0.999,0.1,1,2,3.09023230616781,0.01,1.33,0.3625045,2.52866975924993,NaN,NaN,0.0887292,1.44,1.4796228,1.44,1.4452101
3526,8,0.999,0.1,1,2,3.09023230616781,0.05,1.33,0.3656496,2.52866975924993,NaN,NaN,0.090489,1.44,1.6010596,1.44,1.560395
3527,8,0.999,0.1,1,3,3.09023230616781,0.01,1.336,2.0334129,1.43919892872355,1.99026474431647,2.51581008985495,24.3239909,1.421,14.3553363,1.421,14.3788211
3528,8,0.999,0.1,1,3,3.09023230616781,0.05,1.336,1.8808349,1.43919892872355,1.99026474431647,2.51581008985495,24.3290645,1.421,14.4537436,1.421,14.4617115
3529,9,0.999,0.1,1,1,3.09023230616781,0.01,1.5,0.2139043,1.59264998503273,NaN,NaN,0.004724,3.1,0.2379496,3.1,0.2444321
3530,9,0.999,0.1,1,1,3.09023230616781,0.05,1.5,0.2146842,1.59264998503273,NaN,NaN,0.004583,3.1,0.2366068,3.1,0.2434549
3531,9,0.999,0.1,1,2,3.09023230616781,0.01,1.53,0.3721615,1.55285926806728,1.95308959101957,2.75088968363871,0.0884367,2.03,1.8743145,2.03,1.9006163
3532,9,0.999,0.1,1,2,3.09023230616781,0.05,1.53,0.3744503,1.55285926806728,1.95308959101957,2.75088968363871,0.0745443,2.03,1.8866095,2.03,1.8720307
3533,9,0.999,0.1,1,3,3.09023230616781,0.01,1.54,1.877446,1.53856962402432,1.97118813825511,2.71827620420263,23.6882258,2.026,17.8995849,2.026,18.4640374
3534,9,0.999,0.1,1,3,3.09023230616781,0.05,1.54,1.8918491,1.53856962402432,1.97118813825511,2.71827620420263,23.7750891,2.026,17.792745,2.026,17.9184066
3535,10,0.999,0.1,1,1,3.09023230616781,0.01,1,0.0964559,NaN,NaN,NaN,0.0028263,2.1,0.1945423,2.1,0.1935774
3536,10,0.999,0.1,1,1,3.09023230616781,0.05,1.8,0.1810369,NaN,NaN,NaN,0.0027061,2.1,0.1979654,2.1,0.190939
3537,10,0.999,0.1,1,2,3.09023230616781,0.01,1.01,0.241058,NaN,NaN,NaN,0.0757757,1.77,1.6796018,1.77,1.6593876
3538,10,0.999,0.1,1,2,3.09023230616781,0.05,1.79,0.3889877,NaN,NaN,NaN,0.0986546,1.77,1.662985,1.77,1.6497758
3539,10,0.999,0.1,1,3,3.09023230616781,0.01,1.011,1.3500007,1.32995047498884,1.82024384616618,2.09354786102061,26.0003821,1.752,15.9955981,1.752,15.991734
3540,10,0.999,0.1,1,3,3.09023230616781,0.05,1.011,1.3533212,1.32995047498884,1.82024384616618,2.09354786102061,26.0609526,1.752,16.0020748,1.752,16.0508058
3541,1,0.999,0.1,2,1,3.09023230616781,0.01,2.2,0.30642,NaN,NaN,NaN,0.0031952,1.5,0.1522229,1.5,0.1485276
3542,1,0.999,0.1,2,1,3.09023230616781,0.05,2.2,0.303574,NaN,NaN,NaN,0.0029942,1.7,0.1679722,1.6,0.1600451
3543,1,0.999,0.1,2,2,3.09023230616781,0.01,1.36,0.4798621,1.65391341727188,2.51937257470888,2.86508670176406,0.0926188,1.27,1.3304586,1.27,1.3075246
3544,1,0.999,0.1,2,2,3.09023230616781,0.05,1.79,0.5845184,1.65391341727188,2.51937257470888,2.86508670176406,0.0745394,1.27,1.3065398,1.27,1.3117395
3545,1,0.999,0.1,2,3,3.09023230616781,0.01,1.365,2.0367921,1.58259574813523,2.45291476759532,2.87060388674727,24.9219848,1.241,12.8546896,1.241,12.8841037
3546,1,0.999,0.1,2,3,3.09023230616781,0.05,1.365,2.0305972,1.58259574813523,2.45291476759532,2.87060388674727,24.8632589,1.258,13.365834,1.258,12.935943
3547,2,0.999,0.1,2,1,3.09023230616781,0.01,2,0.3203285,NaN,NaN,NaN,0.0029005,1.5,0.1522046,1.5,0.1493268
3548,2,0.999,0.1,2,1,3.09023230616781,0.05,2.4,0.4178014,NaN,NaN,NaN,0.0029525,1.5,0.1506785,1.5,0.1522441
3549,2,0.999,0.1,2,2,3.09023230616781,0.01,1.82,0.7212278,2.59888660515787,NaN,NaN,0.0848866,1.17,1.2011967,1.17,1.2041511
3550,2,0.999,0.1,2,2,3.09023230616781,0.05,1.82,0.6801993,2.59888660515787,NaN,NaN,0.0794421,1.18,1.2069458,1.18,1.2148574
3551,2,0.999,0.1,2,3,3.09023230616781,0.01,1.349,1.9932307,1.47742981407871,1.78499110097308,2.10941675979527,24.1903474,1.173,12.4524879,1.173,12.0831454
3552,2,0.999,0.1,2,3,3.09023230616781,0.05,1.349,1.9916969,1.47742981407871,1.78499110097308,2.10941675979527,24.3192387,1.181,12.0317217,1.175,12.3851346
3553,3,0.999,0.1,2,1,3.09023230616781,0.01,1.9,0.3619395,2.17489937910106,NaN,NaN,0.0049654,1.6,0.1529693,1.4,0.1355208
3554,3,0.999,0.1,2,1,3.09023230616781,0.05,2.2,0.4647011,2.17489937910106,NaN,NaN,0.0048085,1.6,0.1513526,1.6,0.1510945
3555,3,0.999,0.1,2,2,3.09023230616781,0.01,2.16,0.8036859,2.19245546572236,NaN,NaN,0.0936636,1.14,1.1876598,1.14,1.2248047
3556,3,0.999,0.1,2,2,3.09023230616781,0.05,2.16,0.8059023,2.19245546572236,NaN,NaN,0.0917348,1.16,1.1989141,1.16,1.2177466
3557,3,0.999,0.1,2,3,3.09023230616781,0.01,1.334,2.019586,1.36014118553508,2.19456031943899,NaN,25.5673875,1.145,12.0037084,1.145,12.0040146
3558,3,0.999,0.1,2,3,3.09023230616781,0.05,1.334,2.0496721,1.36014118553508,2.19456031943899,NaN,25.2952593,1.156,12.1308237,1.156,12.1030194
3559,4,0.999,0.1,2,1,3.09023230616781,0.01,2.1,0.4019994,NaN,NaN,NaN,0.0027246,1.5,0.1517088,1.5,0.1471242
3560,4,0.999,0.1,2,1,3.09023230616781,0.05,2.4,0.5091635,NaN,NaN,NaN,0.0026459,1.8,0.1624526,1.8,0.1677583
3561,4,0.999,0.1,2,2,3.09023230616781,0.01,2.16,0.9074856,2.55632082112072,NaN,NaN,0.0750375,1.22,1.2221674,1.22,1.228873
3562,4,0.999,0.1,2,2,3.09023230616781,0.05,2.16,0.9224324,2.55632082112072,NaN,NaN,0.0646984,1.26,1.2326012,1.25,1.233602
3563,4,0.999,0.1,2,3,3.09023230616781,0.01,1.447,1.9853553,0.878197262151331,1.39609302899792,1.82151441683656,24.6055393,1.216,12.2697283,1.216,12.1740888
3564,4,0.999,0.1,2,3,3.09023230616781,0.05,1.447,2.0017562,0.878197262151331,1.39609302899792,1.82151441683656,24.3856322,1.258,12.5893445,1.245,12.4019657
3565,5,0.999,0.1,2,1,3.09023230616781,0.01,1.3,0.2257965,NaN,NaN,NaN,0.002707,1.5,0.1483077,1.5,0.1468483
3566,5,0.999,0.1,2,1,3.09023230616781,0.05,1.7,0.3097616,NaN,NaN,NaN,0.0025096,1.6,0.1582095,1.5,0.1486079
3567,5,0.999,0.1,2,2,3.09023230616781,0.01,1.47,0.4784252,NaN,NaN,NaN,0.0625249,1.17,1.1772476,1.15,1.168764
3568,5,0.999,0.1,2,2,3.09023230616781,0.05,1.47,0.4751793,NaN,NaN,NaN,0.0889111,1.33,1.3150438,1.33,1.2821658
3569,5,0.999,0.1,2,3,3.09023230616781,0.01,1.367,1.9680377,1.67521359250356,NaN,NaN,24.5400918,1.173,12.3207257,1.173,11.8460503
3570,5,0.999,0.1,2,3,3.09023230616781,0.05,1.367,1.9816204,1.67521359250356,NaN,NaN,24.29135,1.314,12.6845064,1.205,12.6190529
3571,6,0.999,0.1,2,1,3.09023230616781,0.01,1.7,0.2983836,NaN,NaN,NaN,0.0027504,1.5,0.1455738,1.5,0.1414999
3572,6,0.999,0.1,2,1,3.09023230616781,0.05,2.1,0.3914093,NaN,NaN,NaN,0.0026171,1.5,0.1480853,1.5,0.1439713
3573,6,0.999,0.1,2,2,3.09023230616781,0.01,1.74,0.6847718,NaN,NaN,NaN,0.0945571,1.21,1.2222606,1.21,1.2161621
3574,6,0.999,0.1,2,2,3.09023230616781,0.05,1.74,0.7252352,NaN,NaN,NaN,0.0850655,1.26,1.2778255,1.25,1.2509043
3575,6,0.999,0.1,2,3,3.09023230616781,0.01,0.755,1.313869,1.11444156823247,1.49515328944764,2.26423850146288,25.2969845,1.215,12.0122937,1.215,12.1364529
3576,6,0.999,0.1,2,3,3.09023230616781,0.05,0.755,1.4288601,1.11444156823247,1.49515328944764,2.26423850146288,25.3357937,1.25,12.2783954,1.244,12.1272924
3577,7,0.999,0.1,2,1,3.09023230616781,0.01,3,0.5354259,2.12993095957354,NaN,NaN,0.0047119,1.8,0.1621492,1.8,0.165589
3578,7,0.999,0.1,2,1,3.09023230616781,0.05,3,0.5207681,2.12993095957354,NaN,NaN,0.0046615,1.8,0.1670595,1.8,0.159688
3579,7,0.999,0.1,2,2,3.09023230616781,0.01,1.96,0.6954083,2.28654865704787,NaN,NaN,0.0893125,1.19,1.2344656,1.18,1.233489
3580,7,0.999,0.1,2,2,3.09023230616781,0.05,1.96,0.7091694,2.28654865704787,NaN,NaN,0.0791051,1.22,1.2632688,1.22,1.2834605
3581,7,0.999,0.1,2,3,3.09023230616781,0.01,1.425,2.0342419,1.52906559637452,2.33644784562968,NaN,25.3903577,1.193,12.2358109,1.193,12.2841085
3582,7,0.999,0.1,2,3,3.09023230616781,0.05,1.425,2.0524344,1.52906559637452,2.33644784562968,NaN,25.0944253,1.218,12.4162223,1.218,12.4174585
3583,8,0.999,0.1,2,1,3.09023230616781,0.01,1.8,0.3299942,2.38038203139354,NaN,NaN,0.0047755,1.5,0.142163,1.5,0.1409523
3584,8,0.999,0.1,2,1,3.09023230616781,0.05,2.1,0.4528756,2.38038203139354,NaN,NaN,0.0050684,1.5,0.1448818,1.5,0.1426682
3585,8,0.999,0.1,2,2,3.09023230616781,0.01,1.89,0.7008632,2.42992664859816,NaN,NaN,0.1005012,1.17,1.1759786,1.16,1.1735849
3586,8,0.999,0.1,2,2,3.09023230616781,0.05,1.89,0.6834263,2.42992664859816,NaN,NaN,0.0675855,1.17,1.1543253,1.17,1.1766161
3587,8,0.999,0.1,2,3,3.09023230616781,0.01,1.287,1.9643175,1.24349577856033,1.94072652090659,2.42860792733729,24.4234416,1.145,11.9802317,1.145,11.6053595
3588,8,0.999,0.1,2,3,3.09023230616781,0.05,1.287,1.9684503,1.24349577856033,1.94072652090659,2.42860792733729,24.4723814,1.171,11.7284344,1.167,12.1396002
3589,9,0.999,0.1,2,1,3.09023230616781,0.01,2.4,0.4383033,NaN,NaN,NaN,0.003008,1.5,0.1446967,1.5,0.141916
3590,9,0.999,0.1,2,1,3.09023230616781,0.05,2.4,0.438058,NaN,NaN,NaN,0.0027889,1.5,0.1457236,1.5,0.1446265
3591,9,0.999,0.1,2,2,3.09023230616781,0.01,1.92,0.6792903,2.57369416157398,NaN,NaN,0.0918994,1.4,1.350713,1.32,1.2888579
3592,9,0.999,0.1,2,2,3.09023230616781,0.05,1.92,0.7015614,2.57369416157398,NaN,NaN,0.0736908,1.53,1.3978531,1.53,1.3882339
3593,9,0.999,0.1,2,3,3.09023230616781,0.01,1.105,1.9794496,2.07635321435037,2.60776383901076,NaN,23.6943505,1.321,12.704643,1.316,13.0211886
3594,9,0.999,0.1,2,3,3.09023230616781,0.05,1.105,2.0802866,2.07635321435037,2.60776383901076,NaN,23.9278988,1.4,13.0007158,1.399,12.9717846
3595,10,0.999,0.1,2,1,3.09023230616781,0.01,2,0.4243643,NaN,NaN,NaN,0.0029561,1.5,0.1503595,1.5,0.1486077
3596,10,0.999,0.1,2,1,3.09023230616781,0.05,2,0.4120448,NaN,NaN,NaN,0.0029547,1.5,0.1451142,1.5,0.1446942
3597,10,0.999,0.1,2,2,3.09023230616781,0.01,1.85,0.6955625,2.48572248987037,NaN,NaN,0.0945782,1.19,1.1893567,1.18,1.1708071
3598,10,0.999,0.1,2,2,3.09023230616781,0.05,1.85,0.6907454,2.48572248987037,NaN,NaN,0.1093029,1.2,1.194196,1.19,1.1917513
3599,10,0.999,0.1,2,3,3.09023230616781,0.01,1.156,1.9858125,2.02502330043261,2.48548152587045,NaN,24.7124678,1.183,11.7118082,1.183,11.7482513
3600,10,0.999,0.1,2,3,3.09023230616781,0.05,1.156,1.9652557,2.02502330043261,2.48548152587045,NaN,25.0110019,1.2,11.8228544,1.186,11.6979179
3601,1,0.999,0.15,0.5,1,3.09023230616781,0.01,0.9,0.0917336,NaN,NaN,NaN,0.0032078,3.3,0.2543035,3.3,0.2532775
3602,1,0.999,0.15,0.5,1,3.09023230616781,0.05,2.2,0.2365815,NaN,NaN,NaN,0.0027072,3.3,0.2550269,3.3,0.260233
3603,1,0.999,0.15,0.5,2,3.09023230616781,0.01,0.91,0.2399315,1.16744989531931,1.49115891554176,2.32718850709897,0.0861731,3.31,2.2648448,3.31,2.2696869
3604,1,0.999,0.15,0.5,2,3.09023230616781,0.05,0.91,0.253862,1.16744989531931,1.49115891554176,2.32718850709897,0.0998754,3.31,2.2411082,3.31,2.2354232
3605,1,0.999,0.15,0.5,3,3.09023230616781,0.01,0.723,1.3177685,1.13133250119298,1.40750237729847,2.36638451312009,25.298551,3.307,18.6418562,3.307,18.6027181
3606,1,0.999,0.15,0.5,3,3.09023230616781,0.05,1.222,2.0224453,1.13133250119298,1.40750237729847,2.36638451312009,25.3601087,3.307,19.0335648,3.307,18.6710324
3607,2,0.999,0.15,0.5,1,3.09023230616781,0.01,1,0.0847924,NaN,NaN,NaN,0.0026332,2.2,0.1978117,2.2,0.1913008
3608,2,0.999,0.15,0.5,1,3.09023230616781,0.05,1.7,0.1664299,NaN,NaN,NaN,0.002777,2.2,0.1982431,2.2,0.1968046
3609,2,0.999,0.15,0.5,2,3.09023230616781,0.01,1.04,0.2514441,2.41249580854122,NaN,NaN,0.0766634,1.8,1.7033398,1.8,1.6785143
3610,2,0.999,0.15,0.5,2,3.09023230616781,0.05,1.04,0.2390693,2.41249580854122,NaN,NaN,0.0743216,1.8,1.7060642,1.8,1.6975604
3611,2,0.999,0.15,0.5,3,3.09023230616781,0.01,1.423,1.9567149,1.70584719183876,2.01290305103817,2.37952594195689,25.098906,1.739,16.0987189,1.739,16.0273592
3612,2,0.999,0.15,0.5,3,3.09023230616781,0.05,1.423,1.9602102,1.70584719183876,2.01290305103817,2.37952594195689,24.8520884,1.739,16.1286405,1.739,16.016419
3613,3,0.999,0.15,0.5,1,3.09023230616781,0.01,1.9,0.1923496,NaN,NaN,NaN,0.0027375,3.4,0.2621402,3.4,0.2589341
3614,3,0.999,0.15,0.5,1,3.09023230616781,0.05,1.9,0.1963906,NaN,NaN,NaN,0.0027922,3.4,0.2657495,3.4,0.2629182
3615,3,0.999,0.15,0.5,2,3.09023230616781,0.01,1.4,0.4887368,1.41559228670587,2.60456948605843,NaN,0.087838,3.37,2.2452341,3.37,2.2320002
3616,3,0.999,0.15,0.5,2,3.09023230616781,0.05,1.4,0.4929078,1.41559228670587,2.60456948605843,NaN,0.0905388,3.37,2.234449,3.37,2.2513335
3617,3,0.999,0.15,0.5,3,3.09023230616781,0.01,0.756,1.3193886,1.34928029997448,1.95566638906193,2.62481812185472,25.6267679,1.988,17.2111599,1.988,17.2674856
3618,3,0.999,0.15,0.5,3,3.09023230616781,0.05,0.756,1.3125499,1.34928029997448,1.95566638906193,2.62481812185472,25.3478681,1.988,17.3320002,1.988,17.2289447
3619,4,0.999,0.15,0.5,1,3.09023230616781,0.01,1.5,0.1726924,NaN,NaN,NaN,0.0027783,2.2,0.2042079,2.2,0.1928711
3620,4,0.999,0.15,0.5,1,3.09023230616781,0.05,1.5,0.1649129,NaN,NaN,NaN,0.0025485,2.2,0.2172956,2.2,0.2339405
3621,4,0.999,0.15,0.5,2,3.09023230616781,0.01,1.56,0.5229014,1.99665664662222,2.9548381976442,NaN,0.0944804,1.83,1.754754,1.83,1.7201615
3622,4,0.999,0.15,0.5,2,3.09023230616781,0.05,1.56,0.4827628,1.99665664662222,2.9548381976442,NaN,0.0902336,1.83,1.7446583,1.83,1.7251644
3623,4,0.999,0.15,0.5,3,3.09023230616781,0.01,0.881,1.3034218,1.52259422562967,1.95593259692509,2.37620987824546,24.75993,1.774,16.2362086,1.774,16.2438023
3624,4,0.999,0.15,0.5,3,3.09023230616781,0.05,0.881,1.2977322,1.52259422562967,1.95593259692509,2.37620987824546,24.7387774,1.774,16.7230196,1.774,16.2008111
3625,5,0.999,0.15,0.5,1,3.09023230616781,0.01,1.1,0.1037282,NaN,NaN,NaN,0.0025897,3,0.2694408,3,0.2494123
3626,5,0.999,0.15,0.5,1,3.09023230616781,0.05,1.7,0.1969887,NaN,NaN,NaN,0.0024124,3,0.2475239,3,0.243257
3627,5,0.999,0.15,0.5,2,3.09023230616781,0.01,0.98,0.2484518,1.91705748513289,2.3054557461891,NaN,0.0742047,2.97,2.2904091,2.97,2.3178097
3628,5,0.999,0.15,0.5,2,3.09023230616781,0.05,1.79,0.3626125,1.91705748513289,2.3054557461891,NaN,0.0739392,2.97,2.2888238,2.97,2.2883802
3629,5,0.999,0.15,0.5,3,3.09023230616781,0.01,0.986,1.2479738,1.31947001625843,1.92304073823266,2.25513467729342,22.9965385,2.971,19.2543926,2.971,19.0510777
3630,5,0.999,0.15,0.5,3,3.09023230616781,0.05,0.986,1.236524,1.31947001625843,1.92304073823266,2.25513467729342,22.8889753,2.971,19.5141247,2.971,19.0895307
3631,6,0.999,0.15,0.5,1,3.09023230616781,0.01,1.1,0.102271,1.17093108225286,NaN,NaN,0.0050669,3.2,0.2479098,3.2,0.2497924
3632,6,0.999,0.15,0.5,1,3.09023230616781,0.05,1.1,0.1015715,1.17093108225286,NaN,NaN,0.0052069,3.2,0.2456022,3.2,0.2437541
3633,6,0.999,0.15,0.5,2,3.09023230616781,0.01,0.97,0.2469011,1.12643134458552,NaN,NaN,0.0789208,3.19,2.3011971,3.19,2.26474
3634,6,0.999,0.15,0.5,2,3.09023230616781,0.05,1.34,0.3905827,1.12643134458552,NaN,NaN,0.0798647,3.19,2.3152913,3.19,2.2910399
3635,6,0.999,0.15,0.5,3,3.09023230616781,0.01,0.973,1.2850306,1.11042891548206,1.45475325282317,2.06768494551361,24.4035072,3.192,19.1548459,3.192,19.1201177
3636,6,0.999,0.15,0.5,3,3.09023230616781,0.05,0.973,1.3131167,1.11042891548206,1.45475325282317,2.06768494551361,24.5593418,3.192,19.1501582,3.192,19.0488404
3637,7,0.999,0.15,0.5,1,3.09023230616781,0.01,1.5,0.2003241,NaN,NaN,NaN,0.0028025,2,0.1879081,2,0.1798081
3638,7,0.999,0.15,0.5,1,3.09023230616781,0.05,1.5,0.2028815,NaN,NaN,NaN,0.0031272,2,0.1818308,2,0.1856163
3639,7,0.999,0.15,0.5,2,3.09023230616781,0.01,1.3,0.4719103,1.88463721931434,2.72285296246418,NaN,0.0888494,1.67,1.592073,1.67,1.623452
3640,7,0.999,0.15,0.5,2,3.09023230616781,0.05,1.3,0.4641854,1.88463721931434,2.72285296246418,NaN,0.0755336,1.67,1.5650315,1.67,1.5800084
3641,7,0.999,0.15,0.5,3,3.09023230616781,0.01,1.304,1.9450913,1.51895940406672,1.83216644964292,2.47360665787615,24.3109755,1.563,14.8175146,1.563,14.8630155
3642,7,0.999,0.15,0.5,3,3.09023230616781,0.05,1.304,1.9488862,1.51895940406672,1.83216644964292,2.47360665787615,24.3791153,1.563,14.8316984,1.563,14.7349175
3643,8,0.999,0.15,0.5,1,3.09023230616781,0.01,1,0.1154846,1.13493290748753,NaN,NaN,0.0066876,3.2,0.2657543,3.2,0.2519951
3644,8,0.999,0.15,0.5,1,3.09023230616781,0.05,1,0.0924709,1.13493290748753,NaN,NaN,0.00478,3.2,0.2518465,3.2,0.2540073
3645,8,0.999,0.15,0.5,2,3.09023230616781,0.01,1.03,0.2529498,1.07060487190892,1.56605006941354,NaN,0.0757736,3.15,2.2548924,3.15,2.2692318
3646,8,0.999,0.15,0.5,2,3.09023230616781,0.05,1.03,0.2438778,1.07060487190892,1.56605006941354,NaN,0.1053322,3.15,2.2737705,3.15,2.2281063
3647,8,0.999,0.15,0.5,3,3.09023230616781,0.01,1.034,1.2937247,1.03926625028288,2.25858744912187,2.60901508536275,24.6392764,3.15,18.6802529,3.15,18.6496354
3648,8,0.999,0.15,0.5,3,3.09023230616781,0.05,1.034,1.3170311,1.03926625028288,2.25858744912187,2.60901508536275,24.9804638,3.15,19.2328659,3.15,18.6820583
3649,9,0.999,0.15,0.5,1,3.09023230616781,0.01,1.3,0.317233,1.27133256393677,1.7484312418252,NaN,0.0056075,3.1,0.2312322,3.1,0.2307856
3650,9,0.999,0.15,0.5,1,3.09023230616781,0.05,1.3,0.2976929,1.27133256393677,1.7484312418252,NaN,0.0053284,3.1,0.2243689,3.1,0.228403
3651,9,0.999,0.15,0.5,2,3.09023230616781,0.01,1.31,0.4407017,1.20898984906159,1.69451626610557,2.80775356290873,0.0736664,3.11,2.1937842,3.11,2.1456506
3652,9,0.999,0.15,0.5,2,3.09023230616781,0.05,1.31,0.4349999,1.20898984906159,1.69451626610557,2.80775356290873,0.0777583,3.11,2.168179,3.11,2.1368562
3653,9,0.999,0.15,0.5,3,3.09023230616781,0.01,1.202,1.7329936,1.18023650965294,1.71515390625118,2.08117379995306,24.1536268,3.105,17.4651782,3.105,17.4735634
3654,9,0.999,0.15,0.5,3,3.09023230616781,0.05,1.202,1.7131972,1.18023650965294,1.71515390625118,2.08117379995306,23.8453461,3.105,17.5681209,3.105,17.4147794
3655,10,0.999,0.15,0.5,1,3.09023230616781,0.01,0.9,0.0964861,NaN,NaN,NaN,0.0024738,3.1,0.2389894,3.1,0.2404471
3656,10,0.999,0.15,0.5,1,3.09023230616781,0.05,1.6,0.2545861,NaN,NaN,NaN,0.0025442,3.1,0.2372539,3.1,0.2434707
3657,10,0.999,0.15,0.5,2,3.09023230616781,0.01,0.96,0.2479926,1.91573838926896,2.28844318318986,NaN,0.0796613,2,1.8643033,2,1.8577833
3658,10,0.999,0.15,0.5,2,3.09023230616781,0.05,0.96,0.2449386,1.91573838926896,2.28844318318986,NaN,0.0873066,2,1.86634,2,1.8420249
3659,10,0.999,0.15,0.5,3,3.09023230616781,0.01,0.971,1.3039143,1.24966432446857,1.91121416618233,2.29674834924675,24.7702955,1.963,17.3886317,1.963,17.4673206
3660,10,0.999,0.15,0.5,3,3.09023230616781,0.05,0.971,1.3025647,1.24966432446857,1.91121416618233,2.29674834924675,24.5661654,1.963,17.5705539,1.963,17.5850166
3661,1,0.999,0.15,1,1,3.09023230616781,0.01,2.2,0.3140273,NaN,NaN,NaN,0.0029848,1.9,0.184813,1.9,0.1917625
3662,1,0.999,0.15,1,1,3.09023230616781,0.05,2.2,0.3064422,NaN,NaN,NaN,0.0032213,1.9,0.1788776,1.9,0.1756827
3663,1,0.999,0.15,1,2,3.09023230616781,0.01,1.51,0.3701361,1.55214724292741,2.42209269088717,NaN,0.0783055,1.44,1.4941868,1.44,1.5023708
3664,1,0.999,0.15,1,2,3.09023230616781,0.05,1.51,0.3661713,1.55214724292741,2.42209269088717,NaN,0.076477,1.44,1.495963,1.44,1.5010752
3665,1,0.999,0.15,1,3,3.09023230616781,0.01,1.51,1.9511842,1.51156881925333,2.43265807842921,NaN,24.4786488,1.394,14.579742,1.394,14.5681771
3666,1,0.999,0.15,1,3,3.09023230616781,0.05,1.51,1.9709554,1.51156881925333,2.43265807842921,NaN,24.8595191,1.399,14.9024187,1.399,14.5688945
3667,2,0.999,0.15,1,1,3.09023230616781,0.01,1.2,0.225438,NaN,NaN,NaN,0.0036878,1.5,0.1508478,1.5,0.1511135
3668,2,0.999,0.15,1,1,3.09023230616781,0.05,1.9,0.3186946,NaN,NaN,NaN,0.0040279,1.5,0.1474564,1.5,0.1467078
3669,2,0.999,0.15,1,2,3.09023230616781,0.01,1.53,0.4792285,2.1591224298533,2.62462628637207,NaN,0.0721985,1.27,1.2725489,1.27,1.2738264
3670,2,0.999,0.15,1,2,3.09023230616781,0.05,1.53,0.4817497,2.1591224298533,2.62462628637207,NaN,0.0967458,1.27,1.2792645,1.27,1.2733093
3671,2,0.999,0.15,1,3,3.09023230616781,0.01,0.765,1.3176834,1.21206203470715,2.14706090354755,2.62014856077671,25.5314723,1.253,12.8601683,1.253,12.5096935
3672,2,0.999,0.15,1,3,3.09023230616781,0.05,0.765,1.3087713,1.21206203470715,2.14706090354755,2.62014856077671,25.2973395,1.253,12.4960525,1.253,12.8602155
3673,3,0.999,0.15,1,1,3.09023230616781,0.01,1.9,0.1931885,NaN,NaN,NaN,0.0026236,2.2,0.2071232,2.2,0.205012
3674,3,0.999,0.15,1,1,3.09023230616781,0.05,2.2,0.2981825,NaN,NaN,NaN,0.0027717,2.2,0.2032847,2.2,0.2126958
3675,3,0.999,0.15,1,2,3.09023230616781,0.01,1.43,0.4769404,2.42136805074299,NaN,NaN,0.0646731,1.93,1.8570767,1.93,1.8134704
3676,3,0.999,0.15,1,2,3.09023230616781,0.05,1.43,0.464262,2.42136805074299,NaN,NaN,0.0691696,1.93,1.8174171,1.93,1.8509752
3677,3,0.999,0.15,1,3,3.09023230616781,0.01,1.429,2.0188832,1.28493937340749,2.43052515869534,NaN,24.244245,1.919,17.4989572,1.919,17.7775048
3678,3,0.999,0.15,1,3,3.09023230616781,0.05,1.429,2.0111135,1.28493937340749,2.43052515869534,NaN,23.7973476,1.919,17.3934505,1.919,17.8677322
3679,4,0.999,0.15,1,1,3.09023230616781,0.01,1.7,0.2196677,2.31549566190473,NaN,NaN,0.0048476,1.8,0.1752941,1.8,0.1709171
3680,4,0.999,0.15,1,1,3.09023230616781,0.05,2.3,0.3972417,2.31549566190473,NaN,NaN,0.0057491,1.8,0.1768505,1.8,0.1749396
3681,4,0.999,0.15,1,2,3.09023230616781,0.01,1.38,0.4794536,2.33326396579466,NaN,NaN,0.1019386,1.44,1.4464373,1.42,1.4366842
3682,4,0.999,0.15,1,2,3.09023230616781,0.05,1.74,0.5716453,2.33326396579466,NaN,NaN,0.0957813,1.44,1.4394012,1.44,1.4786927
3683,4,0.999,0.15,1,3,3.09023230616781,0.01,1.388,1.9640644,2.05381087379302,2.32504786863263,NaN,23.8327373,1.392,13.9656653,1.388,14.3292435
3684,4,0.999,0.15,1,3,3.09023230616781,0.05,1.388,1.9442357,2.05381087379302,2.32504786863263,NaN,23.9689342,1.439,14.206514,1.392,13.9866807
3685,5,0.999,0.15,1,1,3.09023230616781,0.01,0.8,0.1087684,NaN,NaN,NaN,0.0038427,1.7,0.1647195,1.7,0.1655827
3686,5,0.999,0.15,1,1,3.09023230616781,0.05,1.4,0.21478,NaN,NaN,NaN,0.0029977,1.7,0.1655047,1.7,0.1649002
3687,5,0.999,0.15,1,2,3.09023230616781,0.01,1.37,0.4734855,1.74962068617773,1.90199102550739,2.84479162112191,0.0937557,1.47,1.5817184,1.47,1.5352177
3688,5,0.999,0.15,1,2,3.09023230616781,0.05,1.37,0.4707568,1.74962068617773,1.90199102550739,2.84479162112191,0.0843714,1.47,1.5350546,1.47,1.4159175
3689,5,0.999,0.15,1,3,3.09023230616781,0.01,0.772,1.2880924,1.44227772171147,1.7112788011488,2.83165851363137,24.0600035,1.431,13.9824172,1.431,14.1798402
3690,5,0.999,0.15,1,3,3.09023230616781,0.05,0.772,1.2933362,1.44227772171147,1.7112788011488,2.83165851363137,24.7970196,1.431,14.1313767,1.431,14.0087762
3691,6,0.999,0.15,1,1,3.09023230616781,0.01,2,0.3328289,NaN,NaN,NaN,0.0030116,1.5,0.1481601,1.5,0.1431224
3692,6,0.999,0.15,1,1,3.09023230616781,0.05,2.5,0.6800799,NaN,NaN,NaN,0.003073,1.5,0.1495593,1.5,0.1494634
3693,6,0.999,0.15,1,2,3.09023230616781,0.01,1.47,0.4914133,2.49318623707653,3.01966336185187,NaN,0.0981769,1.2,1.2615636,1.19,1.3243887
3694,6,0.999,0.15,1,2,3.09023230616781,0.05,2.32,0.8069624,2.49318623707653,3.01966336185187,NaN,0.1034298,1.2,1.2388333,1.2,1.2230902
3695,6,0.999,0.15,1,3,3.09023230616781,0.01,1.3,2.0058678,1.48334350468569,2.50211236904949,2.99512820703785,24.9841803,1.198,12.2500569,1.198,12.3794766
3696,6,0.999,0.15,1,3,3.09023230616781,0.05,1.3,1.9852075,1.48334350468569,2.50211236904949,2.99512820703785,24.0183324,1.198,12.4122947,1.198,12.1739998
3697,7,0.999,0.15,1,1,3.09023230616781,0.01,1.5,0.2095979,NaN,NaN,NaN,0.0036065,1.5,0.1506536,1.5,0.1497439
3698,7,0.999,0.15,1,1,3.09023230616781,0.05,1.9,0.302452,NaN,NaN,NaN,0.0030098,1.6,0.1563357,1.5,0.1491882
3699,7,0.999,0.15,1,2,3.09023230616781,0.01,1.44,0.4605784,2.60834426777054,NaN,NaN,0.0759523,1.31,1.3302146,1.29,1.296206
3700,7,0.999,0.15,1,2,3.09023230616781,0.05,1.44,0.4765662,2.60834426777054,NaN,NaN,0.0852506,1.31,1.3268625,1.31,1.3131915
3701,7,0.999,0.15,1,3,3.09023230616781,0.01,0.754,1.282713,1.50257913054816,1.77872729187017,2.60308029925074,23.9462092,1.279,13.2732344,1.279,12.7795529
3702,7,0.999,0.15,1,3,3.09023230616781,0.05,0.754,1.2906495,1.50257913054816,1.77872729187017,2.60308029925074,23.9155475,1.279,12.8747897,1.279,13.2818734
3703,8,0.999,0.15,1,1,3.09023230616781,0.01,1.7,0.1871367,NaN,NaN,NaN,0.0027663,1.7,0.1731075,1.7,0.1729415
3704,8,0.999,0.15,1,1,3.09023230616781,0.05,2.1,0.3408286,NaN,NaN,NaN,0.0026613,1.7,0.1715426,1.7,0.1677037
3705,8,0.999,0.15,1,2,3.09023230616781,0.01,1.74,0.703244,2.63163394367753,NaN,NaN,0.0939683,1.46,1.4682928,1.46,1.4947856
3706,8,0.999,0.15,1,2,3.09023230616781,0.05,1.74,0.6975265,2.63163394367753,NaN,NaN,0.0894756,1.46,1.4709932,1.46,1.467628
3707,8,0.999,0.15,1,3,3.09023230616781,0.01,1.701,2.4030114,1.12472462305411,1.92488694124351,2.135612133443,24.2289006,1.457,14.3429931,1.457,15.0632049
3708,8,0.999,0.15,1,3,3.09023230616781,0.05,1.701,2.4348435,1.12472462305411,1.92488694124351,2.135612133443,24.5580331,1.457,14.4236422,1.457,14.3546513
3709,9,0.999,0.15,1,1,3.09023230616781,0.01,1.8,0.3011788,NaN,NaN,NaN,0.003787,1.8,0.1730432,1.8,0.1747894
3710,9,0.999,0.15,1,1,3.09023230616781,0.05,1.8,0.3032511,NaN,NaN,NaN,0.0028224,1.9,0.1787526,1.9,0.1778826
3711,9,0.999,0.15,1,2,3.09023230616781,0.01,1.35,0.4610517,2.62804890142805,2.78995595000409,NaN,0.0876606,1.48,1.4764185,1.48,1.5262259
3712,9,0.999,0.15,1,2,3.09023230616781,0.05,1.35,0.5181381,2.62804890142805,2.78995595000409,NaN,0.0837966,1.48,1.6053368,1.48,1.6654836
3713,9,0.999,0.15,1,3,3.09023230616781,0.01,1.282,2.0332852,1.81258588080304,2.5930819745631,NaN,23.8630484,1.461,14.5562741,1.461,14.5096494
3714,9,0.999,0.15,1,3,3.09023230616781,0.05,1.282,1.9801746,1.81258588080304,2.5930819745631,NaN,24.3623778,1.461,14.5797378,1.461,14.5279878
3715,10,0.999,0.15,1,1,3.09023230616781,0.01,0.8,0.0954651,1.08131192358149,NaN,NaN,0.0050781,3.1,0.2417998,3.1,0.2476543
3716,10,0.999,0.15,1,1,3.09023230616781,0.05,1.7,0.2341572,1.08131192358149,NaN,NaN,0.0050802,3.1,0.2379204,3.1,0.2456035
3717,10,0.999,0.15,1,2,3.09023230616781,0.01,0.76,0.2477733,1.0818812068902,1.83119934004771,NaN,0.077665,2.02,1.9032719,2.02,1.9437432
3718,10,0.999,0.15,1,2,3.09023230616781,0.05,0.76,0.2490465,1.0818812068902,1.83119934004771,NaN,0.0848953,2.02,1.9204086,2.02,1.9237521
3719,10,0.999,0.15,1,3,3.09023230616781,0.01,0.769,1.2900896,1.02274674244314,1.7867420255141,2.26264458817293,24.4614124,1.909,17.7632538,1.909,17.7973261
3720,10,0.999,0.15,1,3,3.09023230616781,0.05,0.769,1.3150637,1.02274674244314,1.7867420255141,2.26264458817293,24.6799505,1.909,17.9271904,1.909,17.7242919
3721,1,0.999,0.15,2,1,3.09023230616781,0.01,0.9,0.1039552,NaN,NaN,NaN,0.0025954,1.7,0.1635298,1.7,0.1623514
3722,1,0.999,0.15,2,1,3.09023230616781,0.05,1.5,0.1912632,NaN,NaN,NaN,0.0024519,1.7,0.1615566,1.7,0.1628199
3723,1,0.999,0.15,2,2,3.09023230616781,0.01,1.34,0.4846455,NaN,NaN,NaN,0.0744652,1.45,1.460375,1.45,1.4150833
3724,1,0.999,0.15,2,2,3.09023230616781,0.05,1.34,0.4763557,NaN,NaN,NaN,0.0800783,1.45,1.4261433,1.45,1.413936
3725,1,0.999,0.15,2,3,3.09023230616781,0.01,1.233,2.0875421,1.52282363110471,2.2992141473935,NaN,24.3022707,1.431,14.054907,1.431,14.1770863
3726,1,0.999,0.15,2,3,3.09023230616781,0.05,1.233,2.0636626,1.52282363110471,2.2992141473935,NaN,24.0340094,1.431,14.0422036,1.431,14.0759318
3727,2,0.999,0.15,2,1,3.09023230616781,0.01,1.2,0.2003461,NaN,NaN,NaN,0.0029756,1.5,0.1530634,1.5,0.149428
3728,2,0.999,0.15,2,1,3.09023230616781,0.05,1.6,0.28041,NaN,NaN,NaN,0.0026528,1.5,0.1471838,1.5,0.1476748
3729,2,0.999,0.15,2,2,3.09023230616781,0.01,1.31,0.4722828,2.56827623144273,NaN,NaN,0.0808985,1.23,1.2782237,1.23,1.2644017
3730,2,0.999,0.15,2,2,3.09023230616781,0.05,1.31,0.4679892,2.56827623144273,NaN,NaN,0.0845623,1.23,1.2907079,1.23,1.2708492
3731,2,0.999,0.15,2,3,3.09023230616781,0.01,1.246,1.9539966,1.62435079258764,2.57885515006195,NaN,23.6950492,1.213,12.5939221,1.213,12.4028473
3732,2,0.999,0.15,2,3,3.09023230616781,0.05,1.246,1.9373022,1.62435079258764,2.57885515006195,NaN,23.4036539,1.227,12.5448524,1.227,13.0323155
3733,3,0.999,0.15,2,1,3.09023230616781,0.01,1.4,0.213481,NaN,NaN,NaN,0.0035084,2,0.1830479,2,0.1822479
3734,3,0.999,0.15,2,1,3.09023230616781,0.05,2.1,0.301878,NaN,NaN,NaN,0.0027328,2,0.1864539,2,0.1794318
3735,3,0.999,0.15,2,2,3.09023230616781,0.01,1.49,0.3882576,1.53795823630163,2.71161151497199,NaN,0.099216,1.5,1.4978767,1.5,1.5053534
3736,3,0.999,0.15,2,2,3.09023230616781,0.05,1.49,0.4045421,1.53795823630163,2.71161151497199,NaN,0.0744092,1.51,1.5374368,1.51,1.5065978
3737,3,0.999,0.15,2,3,3.09023230616781,0.01,1.317,1.9477708,1.48657643583332,2.1261587131894,2.71566598669746,25.0951153,1.472,14.7556566,1.472,15.2363695
3738,3,0.999,0.15,2,3,3.09023230616781,0.05,1.317,1.9750137,1.48657643583332,2.1261587131894,2.71566598669746,25.1196848,1.472,14.7614181,1.472,14.9348299
3739,4,0.999,0.15,2,1,3.09023230616781,0.01,1.8,0.4382498,2.0764935724139,NaN,NaN,0.0055235,1.5,0.1436215,1.5,0.1525735
3740,4,0.999,0.15,2,1,3.09023230616781,0.05,1.8,0.4435879,2.0764935724139,NaN,NaN,0.0052383,1.6,0.1489878,1.6,0.1480664
3741,4,0.999,0.15,2,2,3.09023230616781,0.01,1.82,0.5372812,2.18130494304327,NaN,NaN,0.0797484,1.16,1.2254907,1.14,1.1487635
3742,4,0.999,0.15,2,2,3.09023230616781,0.05,1.82,0.5432545,2.18130494304327,NaN,NaN,0.0917584,1.21,1.1690658,1.17,1.1291411
3743,4,0.999,0.15,2,3,3.09023230616781,0.01,1.606,2.42219,1.75726550578289,2.21131031510129,NaN,24.4136066,1.151,11.1694339,1.139,11.0742146
3744,4,0.999,0.15,2,3,3.09023230616781,0.05,1.606,2.4654227,1.75726550578289,2.21131031510129,NaN,24.4517822,1.188,11.3817789,1.162,11.2553015
3745,5,0.999,0.15,2,1,3.09023230616781,0.01,1.8,0.3318556,NaN,NaN,NaN,0.002865,1.5,0.1441848,1.4,0.1349535
3746,5,0.999,0.15,2,1,3.09023230616781,0.05,1.8,0.3200896,NaN,NaN,NaN,0.0027094,1.5,0.1442197,1.5,0.1435189
3747,5,0.999,0.15,2,2,3.09023230616781,0.01,1.42,0.4871682,2.64211898666395,NaN,NaN,0.0957669,1.14,1.1548036,1.14,1.1402877
3748,5,0.999,0.15,2,2,3.09023230616781,0.05,1.42,0.4798768,2.64211898666395,NaN,NaN,0.0837199,1.25,1.2185707,1.25,1.209112
3749,5,0.999,0.15,2,3,3.09023230616781,0.01,1.306,1.9152922,1.37193475605021,2.63439622974255,NaN,23.7575051,1.23,11.8420012,1.076,11.0548112
3750,5,0.999,0.15,2,3,3.09023230616781,0.05,1.306,1.9464361,1.37193475605021,2.63439622974255,NaN,23.7597184,1.251,12.4898519,1.247,11.9063124
3751,6,0.999,0.15,2,1,3.09023230616781,0.01,0.9,0.1021902,NaN,NaN,NaN,0.0026035,1.5,0.1494688,1.5,0.1500474
3752,6,0.999,0.15,2,1,3.09023230616781,0.05,0.9,0.0937788,NaN,NaN,NaN,0.0026228,1.5,0.1499914,1.5,0.1508173
3753,6,0.999,0.15,2,2,3.09023230616781,0.01,1.39,0.462572,NaN,NaN,NaN,0.0727576,1.28,1.3090891,1.28,1.3147094
3754,6,0.999,0.15,2,2,3.09023230616781,0.05,1.39,0.4683285,NaN,NaN,NaN,0.0763033,1.35,1.3407812,1.36,1.3568196
3755,6,0.999,0.15,2,3,3.09023230616781,0.01,1.211,2.0139572,1.37203762067888,1.75460679906818,2.35058520651272,24.4286082,1.255,12.9929349,1.255,13.2312632
3756,6,0.999,0.15,2,3,3.09023230616781,0.05,1.211,2.0138608,1.37203762067888,1.75460679906818,2.35058520651272,24.2444634,1.36,13.3588249,1.359,13.3451972
3757,7,0.999,0.15,2,1,3.09023230616781,0.01,1.9,0.3194342,2.23266418628251,NaN,NaN,0.0059635,1.5,0.1532752,1.5,0.1491528
3758,7,0.999,0.15,2,1,3.09023230616781,0.05,2.2,0.4353907,2.23266418628251,NaN,NaN,0.0065004,1.6,0.1582866,1.5,0.1530029
3759,7,0.999,0.15,2,2,3.09023230616781,0.01,1.94,0.8071069,2.26976049031856,NaN,NaN,0.1110862,1.25,1.3906936,1.25,1.4201691
3760,7,0.999,0.15,2,2,3.09023230616781,0.05,1.94,0.7080705,2.26976049031856,NaN,NaN,0.1079095,1.25,1.3290213,1.25,1.2914981
3761,7,0.999,0.15,2,3,3.09023230616781,0.01,1.352,1.9400934,1.36850857087314,1.47862380946971,2.25557181809433,24.8426958,1.215,12.5580644,1.215,12.6185411
3762,7,0.999,0.15,2,3,3.09023230616781,0.05,1.352,1.9664269,1.36850857087314,1.47862380946971,2.25557181809433,24.9481507,1.215,12.5811229,1.215,12.6396859
3763,8,0.999,0.15,2,1,3.09023230616781,0.01,1.3,0.2600632,NaN,NaN,NaN,0.0028481,1.5,0.1490023,1.5,0.1476523
3764,8,0.999,0.15,2,1,3.09023230616781,0.05,1.3,0.2531755,NaN,NaN,NaN,0.0030135,1.5,0.1503633,1.5,0.1495011
3765,8,0.999,0.15,2,2,3.09023230616781,0.01,1.34,0.4027757,1.53230392943277,2.55159318388711,NaN,0.0956671,1.23,1.2631296,1.22,1.2489771
3766,8,0.999,0.15,2,2,3.09023230616781,0.05,1.34,0.3956774,1.53230392943277,2.55159318388711,NaN,0.0886229,1.23,1.2560575,1.23,1.2654309
3767,8,0.999,0.15,2,3,3.09023230616781,0.01,1.344,1.9754334,1.34340086395178,2.02915851919512,2.55055708143973,24.3375296,1.224,12.5249722,1.223,12.5316906
3768,8,0.999,0.15,2,3,3.09023230616781,0.05,1.344,1.98906,1.34340086395178,2.02915851919512,2.55055708143973,24.1660791,1.224,12.9743307,1.224,12.4983772
3769,9,0.999,0.15,2,1,3.09023230616781,0.01,2.1,0.4672455,2.24930129571927,NaN,NaN,0.0055012,1.5,0.1466008,1.5,0.1544858
3770,9,0.999,0.15,2,1,3.09023230616781,0.05,2.1,0.4507398,2.24930129571927,NaN,NaN,0.0052479,1.7,0.1617106,1.6,0.1515511
3771,9,0.999,0.15,2,2,3.09023230616781,0.01,2.15,0.9281792,2.27527553394749,NaN,NaN,0.084201,1.11,1.1710781,1.11,1.1732742
3772,9,0.999,0.15,2,2,3.09023230616781,0.05,2.15,0.9510649,2.27527553394749,NaN,NaN,0.0938578,1.11,1.1824877,1.11,1.1781348
3773,9,0.999,0.15,2,3,3.09023230616781,0.01,1.33,1.9644561,1.69842727668705,2.26386884558712,NaN,23.8873856,1.11,12.2055601,1.105,11.789514
3774,9,0.999,0.15,2,3,3.09023230616781,0.05,1.33,1.9303267,1.69842727668705,2.26386884558712,NaN,23.7468024,1.116,11.761323,1.113,11.711389
3775,10,0.999,0.15,2,1,3.09023230616781,0.01,1.4,0.2962504,NaN,NaN,NaN,0.0030132,1.4,0.1648593,1.3,0.1450433
3776,10,0.999,0.15,2,1,3.09023230616781,0.05,2.4,0.785598,NaN,NaN,NaN,0.0042,1.4,0.173421,1.4,0.1343809
3777,10,0.999,0.15,2,2,3.09023230616781,0.01,1.64,0.6523574,2.50149695514174,NaN,NaN,0.1106359,1.17,1.2221592,1.17,1.2480715
3778,10,0.999,0.15,2,2,3.09023230616781,0.05,1.64,0.5843393,2.50149695514174,NaN,NaN,0.0873851,1.19,1.1431604,1.19,1.1485624
3779,10,0.999,0.15,2,3,3.09023230616781,0.01,0.738,1.3250368,1.20809737800919,1.84075951937941,2.49201169230712,24.9360158,1.165,11.2777021,1.165,11.1796096
3780,10,0.999,0.15,2,3,3.09023230616781,0.05,0.738,1.2989244,1.20809737800919,1.84075951937941,2.49201169230712,25.1451598,1.184,11.2508753,1.184,11.2622901
